* imported from QPLIB (QCL, minimize)
NAME          QPLIB_0025
OBJSENSE
 MIN
ROWS
 N  OBJ
 L  C00000001
 L  C00000002
 L  C00000003
COLUMNS
    X00000001  OBJ  15
    X00000001  C00000001  1
    X00000001  C00000003  1
    X00000002  OBJ  18
    X00000002  C00000001  1
    X00000002  C00000003  1
    X00000003  OBJ  12
    X00000003  C00000001  1
    X00000003  C00000003  1
    X00000004  OBJ  20
    X00000004  C00000002  1
    X00000004  C00000003  -1
    X00000005  OBJ  14
    X00000005  C00000002  1
    X00000005  C00000003  -1
    X00000006  OBJ  16
    X00000006  C00000002  1
    X00000006  C00000003  -1
QUADOBJ
    X00000001  X00000001  0.040000000000000001
    X00000002  X00000002  0.059999999999999998
    X00000003  X00000003  0.02
    X00000004  X00000004  0.080000000000000002
    X00000005  X00000005  0.050000000000000003
    X00000006  X00000006  0.029999999999999999
RHS
    RHS1  C00000001  100
    RHS1  C00000002  80
    RHS1  C00000003  20
RANGES
    RNG1  C00000001  0
    RNG1  C00000002  0
    RNG1  C00000003  0
BOUNDS
 UP BND  X00000001  50
 UP BND  X00000002  50
 UP BND  X00000003  50
 UP BND  X00000004  50
 UP BND  X00000005  50
 UP BND  X00000006  50
ENDATA
