* imported from QPLIB (QCL, minimize)
NAME          QPLIB_0002
OBJSENSE
 MIN
ROWS
 N  OBJ
 L  C00000001
 L  C00000002
COLUMNS
    X00000001  OBJ  -1
    X00000001  C00000001  1
    X00000001  C00000002  1
    X00000002  OBJ  -2
    X00000002  C00000001  1
    X00000002  C00000002  2
    X00000003  OBJ  -1
    X00000003  C00000001  1
    X00000004  OBJ  -3
    X00000004  C00000001  1
QUADOBJ
    X00000001  X00000001  2
    X00000002  X00000002  4
    X00000003  X00000003  2
    X00000004  X00000004  2
RHS
    RHS1  C00000001  5
    RHS1  C00000002  6
RANGES
    RNG1  C00000001  0
    RNG1  C00000002  4
BOUNDS
 UP BND  X00000001  10
 UP BND  X00000002  10
 UP BND  X00000003  10
 UP BND  X00000004  10
ENDATA
