* imported from QPLIB (DCL, minimize)
NAME          QPLIB_9002
OBJSENSE
 MIN
ROWS
 N  OBJ
 L  C00000001
 L  C00000002
 L  C00000003
 L  C00000004
 L  C00000005
 L  C00000006
 L  C00000007
 L  C00000008
 L  C00000009
 L  C00000010
 L  C00000011
 L  C00000012
 L  C00000013
 L  C00000014
 L  C00000015
 L  C00000016
 L  C00000017
 L  C00000018
 L  C00000019
 L  C00000020
 L  C00000021
 L  C00000022
 L  C00000023
 L  C00000024
 L  C00000025
 L  C00000026
 L  C00000027
 L  C00000028
 L  C00000029
 L  C00000030
 L  C00000031
 L  C00000032
 L  C00000033
 L  C00000034
 L  C00000035
 L  C00000036
 L  C00000037
 L  C00000038
 L  C00000039
 L  C00000040
 L  C00000041
 L  C00000042
 L  C00000043
 L  C00000044
 L  C00000045
 L  C00000046
 L  C00000047
 L  C00000048
 L  C00000049
 L  C00000050
 L  C00000051
 L  C00000052
 L  C00000053
 L  C00000054
 L  C00000055
 L  C00000056
 L  C00000057
 L  C00000058
 L  C00000059
 L  C00000060
 L  C00000061
 L  C00000062
 L  C00000063
 L  C00000064
 L  C00000065
 L  C00000066
 L  C00000067
 L  C00000068
 L  C00000069
 L  C00000070
 L  C00000071
 L  C00000072
 L  C00000073
 L  C00000074
 L  C00000075
 L  C00000076
 L  C00000077
 L  C00000078
 L  C00000079
 L  C00000080
 L  C00000081
 L  C00000082
 L  C00000083
 L  C00000084
 L  C00000085
 L  C00000086
 L  C00000087
 L  C00000088
 L  C00000089
 L  C00000090
 L  C00000091
 L  C00000092
 L  C00000093
 L  C00000094
 L  C00000095
 L  C00000096
 L  C00000097
 L  C00000098
 L  C00000099
 L  C00000100
 L  C00000101
 L  C00000102
 L  C00000103
 L  C00000104
 L  C00000105
 L  C00000106
 L  C00000107
 L  C00000108
 L  C00000109
 L  C00000110
 L  C00000111
 L  C00000112
 L  C00000113
 L  C00000114
 L  C00000115
 L  C00000116
 L  C00000117
 L  C00000118
 L  C00000119
 L  C00000120
 L  C00000121
 L  C00000122
 L  C00000123
 L  C00000124
 L  C00000125
 L  C00000126
 L  C00000127
 L  C00000128
 L  C00000129
 L  C00000130
 L  C00000131
 L  C00000132
 L  C00000133
 L  C00000134
 L  C00000135
 L  C00000136
 L  C00000137
 L  C00000138
 L  C00000139
 L  C00000140
 L  C00000141
 L  C00000142
 L  C00000143
 L  C00000144
 L  C00000145
 L  C00000146
 L  C00000147
 L  C00000148
 L  C00000149
 L  C00000150
 L  C00000151
 L  C00000152
 L  C00000153
 L  C00000154
 L  C00000155
 L  C00000156
 L  C00000157
 L  C00000158
 L  C00000159
 L  C00000160
 L  C00000161
 L  C00000162
 L  C00000163
 L  C00000164
 L  C00000165
 L  C00000166
 L  C00000167
 L  C00000168
 L  C00000169
 L  C00000170
 L  C00000171
 L  C00000172
 L  C00000173
 L  C00000174
 L  C00000175
 L  C00000176
 L  C00000177
 L  C00000178
 L  C00000179
 L  C00000180
 L  C00000181
 L  C00000182
 L  C00000183
 L  C00000184
 L  C00000185
 L  C00000186
 L  C00000187
 L  C00000188
 L  C00000189
 L  C00000190
 L  C00000191
 L  C00000192
 L  C00000193
 L  C00000194
 L  C00000195
 L  C00000196
 L  C00000197
 L  C00000198
 L  C00000199
 L  C00000200
 L  C00000201
 L  C00000202
 L  C00000203
 L  C00000204
 L  C00000205
 L  C00000206
 L  C00000207
 L  C00000208
 L  C00000209
 L  C00000210
 L  C00000211
 L  C00000212
 L  C00000213
 L  C00000214
 L  C00000215
 L  C00000216
 L  C00000217
 L  C00000218
 L  C00000219
 L  C00000220
 L  C00000221
 L  C00000222
 L  C00000223
 L  C00000224
 L  C00000225
 L  C00000226
 L  C00000227
 L  C00000228
 L  C00000229
 L  C00000230
 L  C00000231
 L  C00000232
 L  C00000233
 L  C00000234
 L  C00000235
 L  C00000236
 L  C00000237
 L  C00000238
 L  C00000239
 L  C00000240
 L  C00000241
 L  C00000242
 L  C00000243
 L  C00000244
 L  C00000245
 L  C00000246
 L  C00000247
 L  C00000248
 L  C00000249
 L  C00000250
 L  C00000251
 L  C00000252
 L  C00000253
 L  C00000254
 L  C00000255
 L  C00000256
 L  C00000257
 L  C00000258
 L  C00000259
 L  C00000260
 L  C00000261
 L  C00000262
 L  C00000263
 L  C00000264
 L  C00000265
 L  C00000266
 L  C00000267
 L  C00000268
 L  C00000269
 L  C00000270
 L  C00000271
 L  C00000272
 L  C00000273
 L  C00000274
 L  C00000275
 L  C00000276
 L  C00000277
 L  C00000278
 L  C00000279
 L  C00000280
 L  C00000281
 L  C00000282
 L  C00000283
 L  C00000284
 L  C00000285
 L  C00000286
 L  C00000287
 L  C00000288
 L  C00000289
 L  C00000290
 L  C00000291
 L  C00000292
 L  C00000293
 L  C00000294
 L  C00000295
 L  C00000296
 L  C00000297
 L  C00000298
 L  C00000299
 L  C00000300
 L  C00000301
 L  C00000302
 L  C00000303
 L  C00000304
 L  C00000305
 L  C00000306
 L  C00000307
 L  C00000308
 L  C00000309
 L  C00000310
 L  C00000311
 L  C00000312
 L  C00000313
 L  C00000314
 L  C00000315
 L  C00000316
 L  C00000317
 L  C00000318
 L  C00000319
 L  C00000320
 L  C00000321
 L  C00000322
 L  C00000323
 L  C00000324
 L  C00000325
 L  C00000326
 L  C00000327
 L  C00000328
 L  C00000329
 L  C00000330
 L  C00000331
 L  C00000332
 L  C00000333
 L  C00000334
 L  C00000335
 L  C00000336
 L  C00000337
 L  C00000338
 L  C00000339
 L  C00000340
 L  C00000341
 L  C00000342
 L  C00000343
 L  C00000344
 L  C00000345
 L  C00000346
 L  C00000347
 L  C00000348
 L  C00000349
 L  C00000350
 L  C00000351
 L  C00000352
 L  C00000353
 L  C00000354
 L  C00000355
 L  C00000356
 L  C00000357
 L  C00000358
 L  C00000359
 L  C00000360
 L  C00000361
 L  C00000362
 L  C00000363
 L  C00000364
 L  C00000365
 L  C00000366
 L  C00000367
 L  C00000368
 L  C00000369
 L  C00000370
 L  C00000371
 L  C00000372
 L  C00000373
 L  C00000374
 L  C00000375
 L  C00000376
 L  C00000377
 L  C00000378
 L  C00000379
 L  C00000380
 L  C00000381
 L  C00000382
 L  C00000383
 L  C00000384
 L  C00000385
 L  C00000386
 L  C00000387
 L  C00000388
 L  C00000389
 L  C00000390
 L  C00000391
 L  C00000392
 L  C00000393
 L  C00000394
 L  C00000395
 L  C00000396
 L  C00000397
 L  C00000398
 L  C00000399
 L  C00000400
 L  C00000401
 L  C00000402
 L  C00000403
 L  C00000404
 L  C00000405
 L  C00000406
 L  C00000407
 L  C00000408
 L  C00000409
 L  C00000410
 L  C00000411
 L  C00000412
 L  C00000413
 L  C00000414
 L  C00000415
 L  C00000416
 L  C00000417
 L  C00000418
 L  C00000419
 L  C00000420
 L  C00000421
 L  C00000422
 L  C00000423
 L  C00000424
 L  C00000425
 L  C00000426
 L  C00000427
 L  C00000428
 L  C00000429
 L  C00000430
 L  C00000431
 L  C00000432
 L  C00000433
 L  C00000434
 L  C00000435
 L  C00000436
 L  C00000437
 L  C00000438
 L  C00000439
 L  C00000440
 L  C00000441
 L  C00000442
 L  C00000443
 L  C00000444
 L  C00000445
 L  C00000446
 L  C00000447
 L  C00000448
 L  C00000449
 L  C00000450
 L  C00000451
 L  C00000452
 L  C00000453
 L  C00000454
 L  C00000455
 L  C00000456
 L  C00000457
 L  C00000458
 L  C00000459
 L  C00000460
 L  C00000461
 L  C00000462
 L  C00000463
 L  C00000464
 L  C00000465
 L  C00000466
 L  C00000467
 L  C00000468
 L  C00000469
 L  C00000470
 L  C00000471
 L  C00000472
 L  C00000473
 L  C00000474
 L  C00000475
 L  C00000476
 L  C00000477
 L  C00000478
 L  C00000479
 L  C00000480
 L  C00000481
 L  C00000482
 L  C00000483
 L  C00000484
 L  C00000485
 L  C00000486
 L  C00000487
 L  C00000488
 L  C00000489
 L  C00000490
 L  C00000491
 L  C00000492
 L  C00000493
 L  C00000494
 L  C00000495
 L  C00000496
 L  C00000497
 L  C00000498
 L  C00000499
 L  C00000500
 L  C00000501
 L  C00000502
 L  C00000503
 L  C00000504
 L  C00000505
 L  C00000506
 L  C00000507
 L  C00000508
 L  C00000509
 L  C00000510
 L  C00000511
 L  C00000512
 L  C00000513
 L  C00000514
 L  C00000515
 L  C00000516
 L  C00000517
 L  C00000518
 L  C00000519
 L  C00000520
 L  C00000521
 L  C00000522
 L  C00000523
 L  C00000524
 L  C00000525
 L  C00000526
 L  C00000527
 L  C00000528
 L  C00000529
 L  C00000530
 L  C00000531
 L  C00000532
 L  C00000533
 L  C00000534
 L  C00000535
 L  C00000536
 L  C00000537
 L  C00000538
 L  C00000539
 L  C00000540
 L  C00000541
 L  C00000542
 L  C00000543
 L  C00000544
 L  C00000545
 L  C00000546
 L  C00000547
 L  C00000548
 L  C00000549
 L  C00000550
 L  C00000551
 L  C00000552
 L  C00000553
 L  C00000554
 L  C00000555
 L  C00000556
 L  C00000557
 L  C00000558
 L  C00000559
 L  C00000560
 L  C00000561
 L  C00000562
 L  C00000563
 L  C00000564
 L  C00000565
 L  C00000566
 L  C00000567
 L  C00000568
 L  C00000569
 L  C00000570
 L  C00000571
 L  C00000572
 L  C00000573
 L  C00000574
 L  C00000575
 L  C00000576
 L  C00000577
 L  C00000578
 L  C00000579
 L  C00000580
 L  C00000581
 L  C00000582
 L  C00000583
 L  C00000584
 L  C00000585
 L  C00000586
 L  C00000587
 L  C00000588
 L  C00000589
 L  C00000590
 L  C00000591
 L  C00000592
 L  C00000593
 L  C00000594
 L  C00000595
 L  C00000596
 L  C00000597
 L  C00000598
 L  C00000599
 L  C00000600
 L  C00000601
 L  C00000602
 L  C00000603
 L  C00000604
 L  C00000605
 L  C00000606
 L  C00000607
 L  C00000608
 L  C00000609
 L  C00000610
 L  C00000611
 L  C00000612
 L  C00000613
 L  C00000614
 L  C00000615
 L  C00000616
 L  C00000617
 L  C00000618
 L  C00000619
 L  C00000620
 L  C00000621
 L  C00000622
 L  C00000623
 L  C00000624
 L  C00000625
 L  C00000626
 L  C00000627
 L  C00000628
 L  C00000629
 L  C00000630
 L  C00000631
 L  C00000632
 L  C00000633
 L  C00000634
 L  C00000635
 L  C00000636
 L  C00000637
 L  C00000638
 L  C00000639
 L  C00000640
 L  C00000641
 L  C00000642
 L  C00000643
 L  C00000644
 L  C00000645
 L  C00000646
 L  C00000647
 L  C00000648
 L  C00000649
 L  C00000650
 L  C00000651
 L  C00000652
 L  C00000653
 L  C00000654
 L  C00000655
 L  C00000656
 L  C00000657
 L  C00000658
 L  C00000659
 L  C00000660
 L  C00000661
 L  C00000662
 L  C00000663
 L  C00000664
 L  C00000665
 L  C00000666
 L  C00000667
 L  C00000668
 L  C00000669
 L  C00000670
 L  C00000671
 L  C00000672
 L  C00000673
 L  C00000674
 L  C00000675
 L  C00000676
 L  C00000677
 L  C00000678
 L  C00000679
 L  C00000680
 L  C00000681
 L  C00000682
 L  C00000683
 L  C00000684
 L  C00000685
 L  C00000686
 L  C00000687
 L  C00000688
 L  C00000689
 L  C00000690
 L  C00000691
 L  C00000692
 L  C00000693
 L  C00000694
 L  C00000695
 L  C00000696
 L  C00000697
 L  C00000698
 L  C00000699
 L  C00000700
 L  C00000701
 L  C00000702
 L  C00000703
 L  C00000704
 L  C00000705
 L  C00000706
 L  C00000707
 L  C00000708
 L  C00000709
 L  C00000710
 L  C00000711
 L  C00000712
 L  C00000713
 L  C00000714
 L  C00000715
 L  C00000716
 L  C00000717
 L  C00000718
 L  C00000719
 L  C00000720
 L  C00000721
 L  C00000722
 L  C00000723
 L  C00000724
 L  C00000725
 L  C00000726
 L  C00000727
 L  C00000728
 L  C00000729
 L  C00000730
 L  C00000731
 L  C00000732
 L  C00000733
 L  C00000734
 L  C00000735
 L  C00000736
 L  C00000737
 L  C00000738
 L  C00000739
 L  C00000740
 L  C00000741
 L  C00000742
 L  C00000743
 L  C00000744
 L  C00000745
 L  C00000746
 L  C00000747
 L  C00000748
 L  C00000749
 L  C00000750
 L  C00000751
 L  C00000752
 L  C00000753
 L  C00000754
 L  C00000755
 L  C00000756
 L  C00000757
 L  C00000758
 L  C00000759
 L  C00000760
 L  C00000761
 L  C00000762
 L  C00000763
 L  C00000764
 L  C00000765
 L  C00000766
 L  C00000767
 L  C00000768
 L  C00000769
 L  C00000770
 L  C00000771
 L  C00000772
 L  C00000773
 L  C00000774
 L  C00000775
 L  C00000776
 L  C00000777
 L  C00000778
 L  C00000779
 L  C00000780
 L  C00000781
 L  C00000782
 L  C00000783
 L  C00000784
 L  C00000785
 L  C00000786
 L  C00000787
 L  C00000788
 L  C00000789
 L  C00000790
 L  C00000791
 L  C00000792
 L  C00000793
 L  C00000794
 L  C00000795
 L  C00000796
 L  C00000797
 L  C00000798
 L  C00000799
 L  C00000800
 L  C00000801
 L  C00000802
 L  C00000803
 L  C00000804
 L  C00000805
 L  C00000806
 L  C00000807
 L  C00000808
 L  C00000809
 L  C00000810
 L  C00000811
 L  C00000812
 L  C00000813
 L  C00000814
 L  C00000815
 L  C00000816
 L  C00000817
 L  C00000818
 L  C00000819
 L  C00000820
 L  C00000821
 L  C00000822
 L  C00000823
 L  C00000824
 L  C00000825
 L  C00000826
 L  C00000827
 L  C00000828
 L  C00000829
 L  C00000830
 L  C00000831
 L  C00000832
 L  C00000833
 L  C00000834
 L  C00000835
 L  C00000836
 L  C00000837
 L  C00000838
 L  C00000839
 L  C00000840
 L  C00000841
 L  C00000842
 L  C00000843
 L  C00000844
 L  C00000845
 L  C00000846
 L  C00000847
 L  C00000848
 L  C00000849
 L  C00000850
 L  C00000851
 L  C00000852
 L  C00000853
 L  C00000854
 L  C00000855
 L  C00000856
 L  C00000857
 L  C00000858
 L  C00000859
 L  C00000860
 L  C00000861
 L  C00000862
 L  C00000863
 L  C00000864
 L  C00000865
 L  C00000866
 L  C00000867
 L  C00000868
 L  C00000869
 L  C00000870
 L  C00000871
 L  C00000872
 L  C00000873
 L  C00000874
 L  C00000875
 L  C00000876
 L  C00000877
 L  C00000878
 L  C00000879
 L  C00000880
 L  C00000881
 L  C00000882
 L  C00000883
 L  C00000884
 L  C00000885
 L  C00000886
 L  C00000887
 L  C00000888
 L  C00000889
 L  C00000890
 L  C00000891
 L  C00000892
 L  C00000893
 L  C00000894
 L  C00000895
 L  C00000896
 L  C00000897
 L  C00000898
 L  C00000899
 L  C00000900
 L  C00000901
 L  C00000902
 L  C00000903
 L  C00000904
 L  C00000905
 L  C00000906
 L  C00000907
 L  C00000908
 L  C00000909
 L  C00000910
 L  C00000911
 L  C00000912
 L  C00000913
 L  C00000914
 L  C00000915
 L  C00000916
 L  C00000917
 L  C00000918
 L  C00000919
 L  C00000920
 L  C00000921
 L  C00000922
 L  C00000923
 L  C00000924
 L  C00000925
 L  C00000926
 L  C00000927
 L  C00000928
 L  C00000929
 L  C00000930
 L  C00000931
 L  C00000932
 L  C00000933
 L  C00000934
 L  C00000935
 L  C00000936
 L  C00000937
 L  C00000938
 L  C00000939
 L  C00000940
 L  C00000941
 L  C00000942
 L  C00000943
 L  C00000944
 L  C00000945
 L  C00000946
 L  C00000947
 L  C00000948
 L  C00000949
 L  C00000950
 L  C00000951
 L  C00000952
 L  C00000953
 L  C00000954
 L  C00000955
 L  C00000956
 L  C00000957
 L  C00000958
 L  C00000959
 L  C00000960
 L  C00000961
 L  C00000962
 L  C00000963
 L  C00000964
 L  C00000965
 L  C00000966
 L  C00000967
 L  C00000968
 L  C00000969
 L  C00000970
 L  C00000971
 L  C00000972
 L  C00000973
 L  C00000974
 L  C00000975
 L  C00000976
 L  C00000977
 L  C00000978
 L  C00000979
 L  C00000980
 L  C00000981
 L  C00000982
 L  C00000983
 L  C00000984
 L  C00000985
 L  C00000986
 L  C00000987
 L  C00000988
 L  C00000989
 L  C00000990
 L  C00000991
 L  C00000992
 L  C00000993
 L  C00000994
 L  C00000995
 L  C00000996
 L  C00000997
 L  C00000998
 L  C00000999
 L  C00001000
 L  C00001001
 L  C00001002
 L  C00001003
 L  C00001004
 L  C00001005
 L  C00001006
 L  C00001007
 L  C00001008
 L  C00001009
 L  C00001010
 L  C00001011
 L  C00001012
 L  C00001013
 L  C00001014
 L  C00001015
 L  C00001016
 L  C00001017
 L  C00001018
 L  C00001019
 L  C00001020
 L  C00001021
 L  C00001022
 L  C00001023
 L  C00001024
 L  C00001025
 L  C00001026
 L  C00001027
 L  C00001028
 L  C00001029
 L  C00001030
 L  C00001031
 L  C00001032
 L  C00001033
 L  C00001034
 L  C00001035
 L  C00001036
 L  C00001037
 L  C00001038
 L  C00001039
 L  C00001040
 L  C00001041
 L  C00001042
 L  C00001043
 L  C00001044
 L  C00001045
 L  C00001046
 L  C00001047
 L  C00001048
 L  C00001049
 L  C00001050
 L  C00001051
 L  C00001052
 L  C00001053
 L  C00001054
 L  C00001055
 L  C00001056
 L  C00001057
 L  C00001058
 L  C00001059
 L  C00001060
 L  C00001061
 L  C00001062
 L  C00001063
 L  C00001064
 L  C00001065
 L  C00001066
 L  C00001067
 L  C00001068
 L  C00001069
 L  C00001070
 L  C00001071
 L  C00001072
 L  C00001073
 L  C00001074
 L  C00001075
 L  C00001076
 L  C00001077
 L  C00001078
 L  C00001079
 L  C00001080
 L  C00001081
 L  C00001082
 L  C00001083
 L  C00001084
 L  C00001085
 L  C00001086
 L  C00001087
 L  C00001088
 L  C00001089
 L  C00001090
 L  C00001091
 L  C00001092
 L  C00001093
 L  C00001094
 L  C00001095
 L  C00001096
 L  C00001097
 L  C00001098
 L  C00001099
 L  C00001100
 L  C00001101
 L  C00001102
 L  C00001103
 L  C00001104
 L  C00001105
 L  C00001106
 L  C00001107
 L  C00001108
 L  C00001109
 L  C00001110
 L  C00001111
 L  C00001112
 L  C00001113
 L  C00001114
 L  C00001115
 L  C00001116
 L  C00001117
 L  C00001118
 L  C00001119
 L  C00001120
 L  C00001121
 L  C00001122
 L  C00001123
 L  C00001124
 L  C00001125
 L  C00001126
 L  C00001127
 L  C00001128
 L  C00001129
 L  C00001130
 L  C00001131
 L  C00001132
 L  C00001133
 L  C00001134
 L  C00001135
 L  C00001136
 L  C00001137
 L  C00001138
 L  C00001139
 L  C00001140
 L  C00001141
 L  C00001142
 L  C00001143
 L  C00001144
 L  C00001145
 L  C00001146
 L  C00001147
 L  C00001148
 L  C00001149
 L  C00001150
 L  C00001151
 L  C00001152
 L  C00001153
 L  C00001154
 L  C00001155
 L  C00001156
 L  C00001157
 L  C00001158
 L  C00001159
 L  C00001160
 L  C00001161
 L  C00001162
 L  C00001163
 L  C00001164
 L  C00001165
 L  C00001166
 L  C00001167
 L  C00001168
 L  C00001169
 L  C00001170
 L  C00001171
 L  C00001172
 L  C00001173
 L  C00001174
 L  C00001175
 L  C00001176
 L  C00001177
 L  C00001178
 L  C00001179
 L  C00001180
 L  C00001181
 L  C00001182
 L  C00001183
 L  C00001184
 L  C00001185
 L  C00001186
 L  C00001187
 L  C00001188
 L  C00001189
 L  C00001190
 L  C00001191
 L  C00001192
 L  C00001193
 L  C00001194
 L  C00001195
 L  C00001196
 L  C00001197
 L  C00001198
 L  C00001199
 L  C00001200
 L  C00001201
 L  C00001202
 L  C00001203
 L  C00001204
 L  C00001205
 L  C00001206
 L  C00001207
 L  C00001208
 L  C00001209
 L  C00001210
 L  C00001211
 L  C00001212
 L  C00001213
 L  C00001214
 L  C00001215
 L  C00001216
 L  C00001217
 L  C00001218
 L  C00001219
 L  C00001220
 L  C00001221
 L  C00001222
 L  C00001223
 L  C00001224
 L  C00001225
 L  C00001226
 L  C00001227
 L  C00001228
 L  C00001229
 L  C00001230
 L  C00001231
 L  C00001232
 L  C00001233
 L  C00001234
 L  C00001235
 L  C00001236
 L  C00001237
 L  C00001238
 L  C00001239
 L  C00001240
 L  C00001241
 L  C00001242
 L  C00001243
 L  C00001244
 L  C00001245
 L  C00001246
 L  C00001247
 L  C00001248
 L  C00001249
 L  C00001250
 L  C00001251
 L  C00001252
 L  C00001253
 L  C00001254
 L  C00001255
 L  C00001256
 L  C00001257
 L  C00001258
 L  C00001259
 L  C00001260
 L  C00001261
 L  C00001262
 L  C00001263
 L  C00001264
 L  C00001265
 L  C00001266
 L  C00001267
 L  C00001268
 L  C00001269
 L  C00001270
 L  C00001271
 L  C00001272
 L  C00001273
 L  C00001274
 L  C00001275
 L  C00001276
 L  C00001277
 L  C00001278
 L  C00001279
 L  C00001280
 L  C00001281
 L  C00001282
 L  C00001283
 L  C00001284
 L  C00001285
 L  C00001286
 L  C00001287
 L  C00001288
 L  C00001289
 L  C00001290
 L  C00001291
 L  C00001292
 L  C00001293
 L  C00001294
 L  C00001295
 L  C00001296
 L  C00001297
 L  C00001298
 L  C00001299
 L  C00001300
 L  C00001301
 L  C00001302
 L  C00001303
 L  C00001304
 L  C00001305
 L  C00001306
 L  C00001307
 L  C00001308
 L  C00001309
 L  C00001310
 L  C00001311
 L  C00001312
 L  C00001313
 L  C00001314
 L  C00001315
 L  C00001316
 L  C00001317
 L  C00001318
 L  C00001319
 L  C00001320
 L  C00001321
 L  C00001322
 L  C00001323
 L  C00001324
 L  C00001325
 L  C00001326
 L  C00001327
 L  C00001328
 L  C00001329
 L  C00001330
 L  C00001331
 L  C00001332
 L  C00001333
 L  C00001334
 L  C00001335
 L  C00001336
 L  C00001337
 L  C00001338
 L  C00001339
 L  C00001340
 L  C00001341
 L  C00001342
 L  C00001343
 L  C00001344
 L  C00001345
 L  C00001346
 L  C00001347
 L  C00001348
 L  C00001349
 L  C00001350
 L  C00001351
 L  C00001352
 L  C00001353
 L  C00001354
 L  C00001355
 L  C00001356
 L  C00001357
 L  C00001358
 L  C00001359
 L  C00001360
 L  C00001361
 L  C00001362
 L  C00001363
 L  C00001364
 L  C00001365
 L  C00001366
 L  C00001367
 L  C00001368
 L  C00001369
 L  C00001370
 L  C00001371
 L  C00001372
 L  C00001373
 L  C00001374
 L  C00001375
 L  C00001376
 L  C00001377
 L  C00001378
 L  C00001379
 L  C00001380
 L  C00001381
 L  C00001382
 L  C00001383
 L  C00001384
 L  C00001385
 L  C00001386
 L  C00001387
 L  C00001388
 L  C00001389
 L  C00001390
 L  C00001391
 L  C00001392
 L  C00001393
 L  C00001394
 L  C00001395
 L  C00001396
 L  C00001397
 L  C00001398
 L  C00001399
 L  C00001400
 L  C00001401
 L  C00001402
 L  C00001403
 L  C00001404
 L  C00001405
 L  C00001406
 L  C00001407
 L  C00001408
 L  C00001409
 L  C00001410
 L  C00001411
 L  C00001412
 L  C00001413
 L  C00001414
 L  C00001415
 L  C00001416
 L  C00001417
 L  C00001418
 L  C00001419
 L  C00001420
 L  C00001421
 L  C00001422
 L  C00001423
 L  C00001424
 L  C00001425
 L  C00001426
 L  C00001427
 L  C00001428
 L  C00001429
 L  C00001430
 L  C00001431
 L  C00001432
 L  C00001433
 L  C00001434
 L  C00001435
 L  C00001436
 L  C00001437
 L  C00001438
 L  C00001439
 L  C00001440
 L  C00001441
 L  C00001442
 L  C00001443
 L  C00001444
 L  C00001445
 L  C00001446
 L  C00001447
 L  C00001448
 L  C00001449
 L  C00001450
 L  C00001451
 L  C00001452
 L  C00001453
 L  C00001454
 L  C00001455
 L  C00001456
 L  C00001457
 L  C00001458
 L  C00001459
 L  C00001460
 L  C00001461
 L  C00001462
 L  C00001463
 L  C00001464
 L  C00001465
 L  C00001466
 L  C00001467
 L  C00001468
 L  C00001469
 L  C00001470
 L  C00001471
 L  C00001472
 L  C00001473
 L  C00001474
 L  C00001475
 L  C00001476
 L  C00001477
 L  C00001478
 L  C00001479
 L  C00001480
 L  C00001481
 L  C00001482
 L  C00001483
 L  C00001484
 L  C00001485
 L  C00001486
 L  C00001487
 L  C00001488
 L  C00001489
 L  C00001490
 L  C00001491
 L  C00001492
 L  C00001493
 L  C00001494
 L  C00001495
 L  C00001496
 L  C00001497
 L  C00001498
 L  C00001499
 L  C00001500
 L  C00001501
 L  C00001502
 L  C00001503
 L  C00001504
 L  C00001505
 L  C00001506
 L  C00001507
 L  C00001508
 L  C00001509
 L  C00001510
 L  C00001511
 L  C00001512
 L  C00001513
 L  C00001514
 L  C00001515
 L  C00001516
 L  C00001517
 L  C00001518
 L  C00001519
 L  C00001520
 L  C00001521
 L  C00001522
 L  C00001523
 L  C00001524
 L  C00001525
 L  C00001526
 L  C00001527
 L  C00001528
 L  C00001529
 L  C00001530
 L  C00001531
 L  C00001532
 L  C00001533
 L  C00001534
 L  C00001535
 L  C00001536
 L  C00001537
 L  C00001538
 L  C00001539
 L  C00001540
 L  C00001541
 L  C00001542
 L  C00001543
 L  C00001544
 L  C00001545
 L  C00001546
 L  C00001547
 L  C00001548
 L  C00001549
 L  C00001550
 L  C00001551
 L  C00001552
 L  C00001553
 L  C00001554
 L  C00001555
 L  C00001556
 L  C00001557
 L  C00001558
 L  C00001559
 L  C00001560
 L  C00001561
 L  C00001562
 L  C00001563
 L  C00001564
 L  C00001565
 L  C00001566
 L  C00001567
 L  C00001568
 L  C00001569
 L  C00001570
 L  C00001571
 L  C00001572
 L  C00001573
 L  C00001574
 L  C00001575
 L  C00001576
 L  C00001577
 L  C00001578
 L  C00001579
 L  C00001580
 L  C00001581
 L  C00001582
 L  C00001583
 L  C00001584
 L  C00001585
 L  C00001586
 L  C00001587
 L  C00001588
 L  C00001589
 L  C00001590
 L  C00001591
 L  C00001592
 L  C00001593
 L  C00001594
 L  C00001595
 L  C00001596
 L  C00001597
 L  C00001598
 L  C00001599
 L  C00001600
 L  C00001601
 L  C00001602
 L  C00001603
 L  C00001604
 L  C00001605
 L  C00001606
 L  C00001607
 L  C00001608
 L  C00001609
 L  C00001610
 L  C00001611
 L  C00001612
 L  C00001613
 L  C00001614
 L  C00001615
 L  C00001616
 L  C00001617
 L  C00001618
 L  C00001619
 L  C00001620
 L  C00001621
 L  C00001622
 L  C00001623
 L  C00001624
 L  C00001625
 L  C00001626
 L  C00001627
 L  C00001628
 L  C00001629
 L  C00001630
 L  C00001631
 L  C00001632
 L  C00001633
 L  C00001634
 L  C00001635
 L  C00001636
 L  C00001637
 L  C00001638
 L  C00001639
 L  C00001640
 L  C00001641
 L  C00001642
 L  C00001643
 L  C00001644
 L  C00001645
 L  C00001646
 L  C00001647
 L  C00001648
 L  C00001649
COLUMNS
    X00000001  C00000001  -1
    X00000001  C00001191  -1
    X00000001  C00001361  -1
    X00000002  C00000008  -1
    X00000002  C00001192  -1
    X00000002  C00001361  1
    X00000003  C00000015  -1
    X00000003  C00001193  -1
    X00000003  C00001361  1
    X00000004  C00000022  -1
    X00000004  C00001194  -1
    X00000004  C00001361  1
    X00000005  C00000029  -1
    X00000005  C00001195  -1
    X00000005  C00001361  1
    X00000006  C00000036  -1
    X00000006  C00001196  -1
    X00000006  C00001361  1
    X00000007  C00000043  -1
    X00000007  C00001197  -1
    X00000007  C00001361  1
    X00000008  C00000050  -1
    X00000008  C00001198  -1
    X00000008  C00001361  1
    X00000009  C00000057  -1
    X00000009  C00001199  -1
    X00000009  C00001361  1
    X00000010  C00000064  -1
    X00000010  C00001200  -1
    X00000010  C00001361  1
    X00000011  C00000071  -1
    X00000011  C00001191  1
    X00000011  C00001362  -1
    X00000012  C00000078  -1
    X00000012  C00001192  1
    X00000012  C00001362  1
    X00000013  C00000085  -1
    X00000013  C00001193  1
    X00000013  C00001362  1
    X00000014  C00000092  -1
    X00000014  C00001194  1
    X00000014  C00001362  1
    X00000015  C00000099  -1
    X00000015  C00001195  1
    X00000015  C00001362  1
    X00000016  C00000106  -1
    X00000016  C00001196  1
    X00000016  C00001362  1
    X00000017  C00000113  -1
    X00000017  C00001197  1
    X00000017  C00001362  1
    X00000018  C00000120  -1
    X00000018  C00001198  1
    X00000018  C00001362  1
    X00000019  C00000127  -1
    X00000019  C00001199  1
    X00000019  C00001362  1
    X00000020  C00000134  -1
    X00000020  C00001200  1
    X00000020  C00001362  1
    X00000021  C00000141  -1
    X00000021  C00001191  1
    X00000021  C00001363  -1
    X00000022  C00000148  -1
    X00000022  C00001192  1
    X00000022  C00001363  1
    X00000023  C00000155  -1
    X00000023  C00001193  1
    X00000023  C00001363  1
    X00000024  C00000162  -1
    X00000024  C00001194  1
    X00000024  C00001363  1
    X00000025  C00000169  -1
    X00000025  C00001195  1
    X00000025  C00001363  1
    X00000026  C00000176  -1
    X00000026  C00001196  1
    X00000026  C00001363  1
    X00000027  C00000183  -1
    X00000027  C00001197  1
    X00000027  C00001363  1
    X00000028  C00000190  -1
    X00000028  C00001198  1
    X00000028  C00001363  1
    X00000029  C00000197  -1
    X00000029  C00001199  1
    X00000029  C00001363  1
    X00000030  C00000204  -1
    X00000030  C00001200  1
    X00000030  C00001363  1
    X00000031  C00000211  -1
    X00000031  C00001191  1
    X00000031  C00001364  -1
    X00000032  C00000218  -1
    X00000032  C00001192  1
    X00000032  C00001364  1
    X00000033  C00000225  -1
    X00000033  C00001193  1
    X00000033  C00001364  1
    X00000034  C00000232  -1
    X00000034  C00001194  1
    X00000034  C00001364  1
    X00000035  C00000239  -1
    X00000035  C00001195  1
    X00000035  C00001364  1
    X00000036  C00000246  -1
    X00000036  C00001196  1
    X00000036  C00001364  1
    X00000037  C00000253  -1
    X00000037  C00001197  1
    X00000037  C00001364  1
    X00000038  C00000260  -1
    X00000038  C00001198  1
    X00000038  C00001364  1
    X00000039  C00000267  -1
    X00000039  C00001199  1
    X00000039  C00001364  1
    X00000040  C00000274  -1
    X00000040  C00001200  1
    X00000040  C00001364  1
    X00000041  C00000281  -1
    X00000041  C00001191  1
    X00000041  C00001365  -1
    X00000042  C00000288  -1
    X00000042  C00001192  1
    X00000042  C00001365  1
    X00000043  C00000295  -1
    X00000043  C00001193  1
    X00000043  C00001365  1
    X00000044  C00000302  -1
    X00000044  C00001194  1
    X00000044  C00001365  1
    X00000045  C00000309  -1
    X00000045  C00001195  1
    X00000045  C00001365  1
    X00000046  C00000316  -1
    X00000046  C00001196  1
    X00000046  C00001365  1
    X00000047  C00000323  -1
    X00000047  C00001197  1
    X00000047  C00001365  1
    X00000048  C00000330  -1
    X00000048  C00001198  1
    X00000048  C00001365  1
    X00000049  C00000337  -1
    X00000049  C00001199  1
    X00000049  C00001365  1
    X00000050  C00000344  -1
    X00000050  C00001200  1
    X00000050  C00001365  1
    X00000051  C00000351  -1
    X00000051  C00001191  1
    X00000051  C00001366  -1
    X00000052  C00000358  -1
    X00000052  C00001192  1
    X00000052  C00001366  1
    X00000053  C00000365  -1
    X00000053  C00001193  1
    X00000053  C00001366  1
    X00000054  C00000372  -1
    X00000054  C00001194  1
    X00000054  C00001366  1
    X00000055  C00000379  -1
    X00000055  C00001195  1
    X00000055  C00001366  1
    X00000056  C00000386  -1
    X00000056  C00001196  1
    X00000056  C00001366  1
    X00000057  C00000393  -1
    X00000057  C00001197  1
    X00000057  C00001366  1
    X00000058  C00000400  -1
    X00000058  C00001198  1
    X00000058  C00001366  1
    X00000059  C00000407  -1
    X00000059  C00001199  1
    X00000059  C00001366  1
    X00000060  C00000414  -1
    X00000060  C00001200  1
    X00000060  C00001366  1
    X00000061  C00000421  -1
    X00000061  C00001191  1
    X00000061  C00001367  -1
    X00000062  C00000428  -1
    X00000062  C00001192  1
    X00000062  C00001367  1
    X00000063  C00000435  -1
    X00000063  C00001193  1
    X00000063  C00001367  1
    X00000064  C00000442  -1
    X00000064  C00001194  1
    X00000064  C00001367  1
    X00000065  C00000449  -1
    X00000065  C00001195  1
    X00000065  C00001367  1
    X00000066  C00000456  -1
    X00000066  C00001196  1
    X00000066  C00001367  1
    X00000067  C00000463  -1
    X00000067  C00001197  1
    X00000067  C00001367  1
    X00000068  C00000470  -1
    X00000068  C00001198  1
    X00000068  C00001367  1
    X00000069  C00000477  -1
    X00000069  C00001199  1
    X00000069  C00001367  1
    X00000070  C00000484  -1
    X00000070  C00001200  1
    X00000070  C00001367  1
    X00000071  C00000491  -1
    X00000071  C00001191  1
    X00000071  C00001368  -1
    X00000072  C00000498  -1
    X00000072  C00001192  1
    X00000072  C00001368  1
    X00000073  C00000505  -1
    X00000073  C00001193  1
    X00000073  C00001368  1
    X00000074  C00000512  -1
    X00000074  C00001194  1
    X00000074  C00001368  1
    X00000075  C00000519  -1
    X00000075  C00001195  1
    X00000075  C00001368  1
    X00000076  C00000526  -1
    X00000076  C00001196  1
    X00000076  C00001368  1
    X00000077  C00000533  -1
    X00000077  C00001197  1
    X00000077  C00001368  1
    X00000078  C00000540  -1
    X00000078  C00001198  1
    X00000078  C00001368  1
    X00000079  C00000547  -1
    X00000079  C00001199  1
    X00000079  C00001368  1
    X00000080  C00000554  -1
    X00000080  C00001200  1
    X00000080  C00001368  1
    X00000081  C00000561  -1
    X00000081  C00001191  1
    X00000081  C00001369  -1
    X00000082  C00000568  -1
    X00000082  C00001192  1
    X00000082  C00001369  1
    X00000083  C00000575  -1
    X00000083  C00001193  1
    X00000083  C00001369  1
    X00000084  C00000582  -1
    X00000084  C00001194  1
    X00000084  C00001369  1
    X00000085  C00000589  -1
    X00000085  C00001195  1
    X00000085  C00001369  1
    X00000086  C00000596  -1
    X00000086  C00001196  1
    X00000086  C00001369  1
    X00000087  C00000603  -1
    X00000087  C00001197  1
    X00000087  C00001369  1
    X00000088  C00000610  -1
    X00000088  C00001198  1
    X00000088  C00001369  1
    X00000089  C00000617  -1
    X00000089  C00001199  1
    X00000089  C00001369  1
    X00000090  C00000624  -1
    X00000090  C00001200  1
    X00000090  C00001369  1
    X00000091  C00000631  -1
    X00000091  C00001191  1
    X00000091  C00001370  -1
    X00000092  C00000638  -1
    X00000092  C00001192  1
    X00000092  C00001370  1
    X00000093  C00000645  -1
    X00000093  C00001193  1
    X00000093  C00001370  1
    X00000094  C00000652  -1
    X00000094  C00001194  1
    X00000094  C00001370  1
    X00000095  C00000659  -1
    X00000095  C00001195  1
    X00000095  C00001370  1
    X00000096  C00000666  -1
    X00000096  C00001196  1
    X00000096  C00001370  1
    X00000097  C00000673  -1
    X00000097  C00001197  1
    X00000097  C00001370  1
    X00000098  C00000680  -1
    X00000098  C00001198  1
    X00000098  C00001370  1
    X00000099  C00000687  -1
    X00000099  C00001199  1
    X00000099  C00001370  1
    X00000100  C00000694  -1
    X00000100  C00001200  1
    X00000100  C00001370  1
    X00000101  C00000701  -1
    X00000101  C00001191  1
    X00000101  C00001371  -1
    X00000102  C00000708  -1
    X00000102  C00001192  1
    X00000102  C00001371  1
    X00000103  C00000715  -1
    X00000103  C00001193  1
    X00000103  C00001371  1
    X00000104  C00000722  -1
    X00000104  C00001194  1
    X00000104  C00001371  1
    X00000105  C00000729  -1
    X00000105  C00001195  1
    X00000105  C00001371  1
    X00000106  C00000736  -1
    X00000106  C00001196  1
    X00000106  C00001371  1
    X00000107  C00000743  -1
    X00000107  C00001197  1
    X00000107  C00001371  1
    X00000108  C00000750  -1
    X00000108  C00001198  1
    X00000108  C00001371  1
    X00000109  C00000757  -1
    X00000109  C00001199  1
    X00000109  C00001371  1
    X00000110  C00000764  -1
    X00000110  C00001200  1
    X00000110  C00001371  1
    X00000111  C00000771  -1
    X00000111  C00001191  1
    X00000111  C00001372  -1
    X00000112  C00000778  -1
    X00000112  C00001192  1
    X00000112  C00001372  1
    X00000113  C00000785  -1
    X00000113  C00001193  1
    X00000113  C00001372  1
    X00000114  C00000792  -1
    X00000114  C00001194  1
    X00000114  C00001372  1
    X00000115  C00000799  -1
    X00000115  C00001195  1
    X00000115  C00001372  1
    X00000116  C00000806  -1
    X00000116  C00001196  1
    X00000116  C00001372  1
    X00000117  C00000813  -1
    X00000117  C00001197  1
    X00000117  C00001372  1
    X00000118  C00000820  -1
    X00000118  C00001198  1
    X00000118  C00001372  1
    X00000119  C00000827  -1
    X00000119  C00001199  1
    X00000119  C00001372  1
    X00000120  C00000834  -1
    X00000120  C00001200  1
    X00000120  C00001372  1
    X00000121  C00000841  -1
    X00000121  C00001191  1
    X00000121  C00001373  -1
    X00000122  C00000848  -1
    X00000122  C00001192  1
    X00000122  C00001373  1
    X00000123  C00000855  -1
    X00000123  C00001193  1
    X00000123  C00001373  1
    X00000124  C00000862  -1
    X00000124  C00001194  1
    X00000124  C00001373  1
    X00000125  C00000869  -1
    X00000125  C00001195  1
    X00000125  C00001373  1
    X00000126  C00000876  -1
    X00000126  C00001196  1
    X00000126  C00001373  1
    X00000127  C00000883  -1
    X00000127  C00001197  1
    X00000127  C00001373  1
    X00000128  C00000890  -1
    X00000128  C00001198  1
    X00000128  C00001373  1
    X00000129  C00000897  -1
    X00000129  C00001199  1
    X00000129  C00001373  1
    X00000130  C00000904  -1
    X00000130  C00001200  1
    X00000130  C00001373  1
    X00000131  C00000911  -1
    X00000131  C00001191  1
    X00000131  C00001374  -1
    X00000132  C00000918  -1
    X00000132  C00001192  1
    X00000132  C00001374  1
    X00000133  C00000925  -1
    X00000133  C00001193  1
    X00000133  C00001374  1
    X00000134  C00000932  -1
    X00000134  C00001194  1
    X00000134  C00001374  1
    X00000135  C00000939  -1
    X00000135  C00001195  1
    X00000135  C00001374  1
    X00000136  C00000946  -1
    X00000136  C00001196  1
    X00000136  C00001374  1
    X00000137  C00000953  -1
    X00000137  C00001197  1
    X00000137  C00001374  1
    X00000138  C00000960  -1
    X00000138  C00001198  1
    X00000138  C00001374  1
    X00000139  C00000967  -1
    X00000139  C00001199  1
    X00000139  C00001374  1
    X00000140  C00000974  -1
    X00000140  C00001200  1
    X00000140  C00001374  1
    X00000141  C00000981  -1
    X00000141  C00001191  1
    X00000141  C00001375  -1
    X00000142  C00000988  -1
    X00000142  C00001192  1
    X00000142  C00001375  1
    X00000143  C00000995  -1
    X00000143  C00001193  1
    X00000143  C00001375  1
    X00000144  C00001002  -1
    X00000144  C00001194  1
    X00000144  C00001375  1
    X00000145  C00001009  -1
    X00000145  C00001195  1
    X00000145  C00001375  1
    X00000146  C00001016  -1
    X00000146  C00001196  1
    X00000146  C00001375  1
    X00000147  C00001023  -1
    X00000147  C00001197  1
    X00000147  C00001375  1
    X00000148  C00001030  -1
    X00000148  C00001198  1
    X00000148  C00001375  1
    X00000149  C00001037  -1
    X00000149  C00001199  1
    X00000149  C00001375  1
    X00000150  C00001044  -1
    X00000150  C00001200  1
    X00000150  C00001375  1
    X00000151  C00001051  -1
    X00000151  C00001191  1
    X00000151  C00001376  -1
    X00000152  C00001058  -1
    X00000152  C00001192  1
    X00000152  C00001376  1
    X00000153  C00001065  -1
    X00000153  C00001193  1
    X00000153  C00001376  1
    X00000154  C00001072  -1
    X00000154  C00001194  1
    X00000154  C00001376  1
    X00000155  C00001079  -1
    X00000155  C00001195  1
    X00000155  C00001376  1
    X00000156  C00001086  -1
    X00000156  C00001196  1
    X00000156  C00001376  1
    X00000157  C00001093  -1
    X00000157  C00001197  1
    X00000157  C00001376  1
    X00000158  C00001100  -1
    X00000158  C00001198  1
    X00000158  C00001376  1
    X00000159  C00001107  -1
    X00000159  C00001199  1
    X00000159  C00001376  1
    X00000160  C00001114  -1
    X00000160  C00001200  1
    X00000160  C00001376  1
    X00000161  C00001121  -1
    X00000161  C00001191  1
    X00000161  C00001377  -1
    X00000162  C00001128  -1
    X00000162  C00001192  1
    X00000162  C00001377  1
    X00000163  C00001135  -1
    X00000163  C00001193  1
    X00000163  C00001377  1
    X00000164  C00001142  -1
    X00000164  C00001194  1
    X00000164  C00001377  1
    X00000165  C00001149  -1
    X00000165  C00001195  1
    X00000165  C00001377  1
    X00000166  C00001156  -1
    X00000166  C00001196  1
    X00000166  C00001377  1
    X00000167  C00001163  -1
    X00000167  C00001197  1
    X00000167  C00001377  1
    X00000168  C00001170  -1
    X00000168  C00001198  1
    X00000168  C00001377  1
    X00000169  C00001177  -1
    X00000169  C00001199  1
    X00000169  C00001377  1
    X00000170  C00001184  -1
    X00000170  C00001200  1
    X00000170  C00001377  1
    X00000171  C00000001  1
    X00000171  C00000002  -1
    X00000171  C00001201  -1
    X00000171  C00001378  -1
    X00000172  C00000008  1
    X00000172  C00000009  -1
    X00000172  C00001202  -1
    X00000172  C00001378  1
    X00000173  C00000015  1
    X00000173  C00000016  -1
    X00000173  C00001203  -1
    X00000173  C00001378  1
    X00000174  C00000022  1
    X00000174  C00000023  -1
    X00000174  C00001204  -1
    X00000174  C00001378  1
    X00000175  C00000029  1
    X00000175  C00000030  -1
    X00000175  C00001205  -1
    X00000175  C00001378  1
    X00000176  C00000036  1
    X00000176  C00000037  -1
    X00000176  C00001206  -1
    X00000176  C00001378  1
    X00000177  C00000043  1
    X00000177  C00000044  -1
    X00000177  C00001207  -1
    X00000177  C00001378  1
    X00000178  C00000050  1
    X00000178  C00000051  -1
    X00000178  C00001208  -1
    X00000178  C00001378  1
    X00000179  C00000057  1
    X00000179  C00000058  -1
    X00000179  C00001209  -1
    X00000179  C00001378  1
    X00000180  C00000064  1
    X00000180  C00000065  -1
    X00000180  C00001210  -1
    X00000180  C00001378  1
    X00000181  C00000071  1
    X00000181  C00000072  -1
    X00000181  C00001201  1
    X00000181  C00001379  -1
    X00000182  C00000078  1
    X00000182  C00000079  -1
    X00000182  C00001202  1
    X00000182  C00001379  1
    X00000183  C00000085  1
    X00000183  C00000086  -1
    X00000183  C00001203  1
    X00000183  C00001379  1
    X00000184  C00000092  1
    X00000184  C00000093  -1
    X00000184  C00001204  1
    X00000184  C00001379  1
    X00000185  C00000099  1
    X00000185  C00000100  -1
    X00000185  C00001205  1
    X00000185  C00001379  1
    X00000186  C00000106  1
    X00000186  C00000107  -1
    X00000186  C00001206  1
    X00000186  C00001379  1
    X00000187  C00000113  1
    X00000187  C00000114  -1
    X00000187  C00001207  1
    X00000187  C00001379  1
    X00000188  C00000120  1
    X00000188  C00000121  -1
    X00000188  C00001208  1
    X00000188  C00001379  1
    X00000189  C00000127  1
    X00000189  C00000128  -1
    X00000189  C00001209  1
    X00000189  C00001379  1
    X00000190  C00000134  1
    X00000190  C00000135  -1
    X00000190  C00001210  1
    X00000190  C00001379  1
    X00000191  C00000141  1
    X00000191  C00000142  -1
    X00000191  C00001201  1
    X00000191  C00001380  -1
    X00000192  C00000148  1
    X00000192  C00000149  -1
    X00000192  C00001202  1
    X00000192  C00001380  1
    X00000193  C00000155  1
    X00000193  C00000156  -1
    X00000193  C00001203  1
    X00000193  C00001380  1
    X00000194  C00000162  1
    X00000194  C00000163  -1
    X00000194  C00001204  1
    X00000194  C00001380  1
    X00000195  C00000169  1
    X00000195  C00000170  -1
    X00000195  C00001205  1
    X00000195  C00001380  1
    X00000196  C00000176  1
    X00000196  C00000177  -1
    X00000196  C00001206  1
    X00000196  C00001380  1
    X00000197  C00000183  1
    X00000197  C00000184  -1
    X00000197  C00001207  1
    X00000197  C00001380  1
    X00000198  C00000190  1
    X00000198  C00000191  -1
    X00000198  C00001208  1
    X00000198  C00001380  1
    X00000199  C00000197  1
    X00000199  C00000198  -1
    X00000199  C00001209  1
    X00000199  C00001380  1
    X00000200  C00000204  1
    X00000200  C00000205  -1
    X00000200  C00001210  1
    X00000200  C00001380  1
    X00000201  C00000211  1
    X00000201  C00000212  -1
    X00000201  C00001201  1
    X00000201  C00001381  -1
    X00000202  C00000218  1
    X00000202  C00000219  -1
    X00000202  C00001202  1
    X00000202  C00001381  1
    X00000203  C00000225  1
    X00000203  C00000226  -1
    X00000203  C00001203  1
    X00000203  C00001381  1
    X00000204  C00000232  1
    X00000204  C00000233  -1
    X00000204  C00001204  1
    X00000204  C00001381  1
    X00000205  C00000239  1
    X00000205  C00000240  -1
    X00000205  C00001205  1
    X00000205  C00001381  1
    X00000206  C00000246  1
    X00000206  C00000247  -1
    X00000206  C00001206  1
    X00000206  C00001381  1
    X00000207  C00000253  1
    X00000207  C00000254  -1
    X00000207  C00001207  1
    X00000207  C00001381  1
    X00000208  C00000260  1
    X00000208  C00000261  -1
    X00000208  C00001208  1
    X00000208  C00001381  1
    X00000209  C00000267  1
    X00000209  C00000268  -1
    X00000209  C00001209  1
    X00000209  C00001381  1
    X00000210  C00000274  1
    X00000210  C00000275  -1
    X00000210  C00001210  1
    X00000210  C00001381  1
    X00000211  C00000281  1
    X00000211  C00000282  -1
    X00000211  C00001201  1
    X00000211  C00001382  -1
    X00000212  C00000288  1
    X00000212  C00000289  -1
    X00000212  C00001202  1
    X00000212  C00001382  1
    X00000213  C00000295  1
    X00000213  C00000296  -1
    X00000213  C00001203  1
    X00000213  C00001382  1
    X00000214  C00000302  1
    X00000214  C00000303  -1
    X00000214  C00001204  1
    X00000214  C00001382  1
    X00000215  C00000309  1
    X00000215  C00000310  -1
    X00000215  C00001205  1
    X00000215  C00001382  1
    X00000216  C00000316  1
    X00000216  C00000317  -1
    X00000216  C00001206  1
    X00000216  C00001382  1
    X00000217  C00000323  1
    X00000217  C00000324  -1
    X00000217  C00001207  1
    X00000217  C00001382  1
    X00000218  C00000330  1
    X00000218  C00000331  -1
    X00000218  C00001208  1
    X00000218  C00001382  1
    X00000219  C00000337  1
    X00000219  C00000338  -1
    X00000219  C00001209  1
    X00000219  C00001382  1
    X00000220  C00000344  1
    X00000220  C00000345  -1
    X00000220  C00001210  1
    X00000220  C00001382  1
    X00000221  C00000351  1
    X00000221  C00000352  -1
    X00000221  C00001201  1
    X00000221  C00001383  -1
    X00000222  C00000358  1
    X00000222  C00000359  -1
    X00000222  C00001202  1
    X00000222  C00001383  1
    X00000223  C00000365  1
    X00000223  C00000366  -1
    X00000223  C00001203  1
    X00000223  C00001383  1
    X00000224  C00000372  1
    X00000224  C00000373  -1
    X00000224  C00001204  1
    X00000224  C00001383  1
    X00000225  C00000379  1
    X00000225  C00000380  -1
    X00000225  C00001205  1
    X00000225  C00001383  1
    X00000226  C00000386  1
    X00000226  C00000387  -1
    X00000226  C00001206  1
    X00000226  C00001383  1
    X00000227  C00000393  1
    X00000227  C00000394  -1
    X00000227  C00001207  1
    X00000227  C00001383  1
    X00000228  C00000400  1
    X00000228  C00000401  -1
    X00000228  C00001208  1
    X00000228  C00001383  1
    X00000229  C00000407  1
    X00000229  C00000408  -1
    X00000229  C00001209  1
    X00000229  C00001383  1
    X00000230  C00000414  1
    X00000230  C00000415  -1
    X00000230  C00001210  1
    X00000230  C00001383  1
    X00000231  C00000421  1
    X00000231  C00000422  -1
    X00000231  C00001201  1
    X00000231  C00001384  -1
    X00000232  C00000428  1
    X00000232  C00000429  -1
    X00000232  C00001202  1
    X00000232  C00001384  1
    X00000233  C00000435  1
    X00000233  C00000436  -1
    X00000233  C00001203  1
    X00000233  C00001384  1
    X00000234  C00000442  1
    X00000234  C00000443  -1
    X00000234  C00001204  1
    X00000234  C00001384  1
    X00000235  C00000449  1
    X00000235  C00000450  -1
    X00000235  C00001205  1
    X00000235  C00001384  1
    X00000236  C00000456  1
    X00000236  C00000457  -1
    X00000236  C00001206  1
    X00000236  C00001384  1
    X00000237  C00000463  1
    X00000237  C00000464  -1
    X00000237  C00001207  1
    X00000237  C00001384  1
    X00000238  C00000470  1
    X00000238  C00000471  -1
    X00000238  C00001208  1
    X00000238  C00001384  1
    X00000239  C00000477  1
    X00000239  C00000478  -1
    X00000239  C00001209  1
    X00000239  C00001384  1
    X00000240  C00000484  1
    X00000240  C00000485  -1
    X00000240  C00001210  1
    X00000240  C00001384  1
    X00000241  C00000491  1
    X00000241  C00000492  -1
    X00000241  C00001201  1
    X00000241  C00001385  -1
    X00000242  C00000498  1
    X00000242  C00000499  -1
    X00000242  C00001202  1
    X00000242  C00001385  1
    X00000243  C00000505  1
    X00000243  C00000506  -1
    X00000243  C00001203  1
    X00000243  C00001385  1
    X00000244  C00000512  1
    X00000244  C00000513  -1
    X00000244  C00001204  1
    X00000244  C00001385  1
    X00000245  C00000519  1
    X00000245  C00000520  -1
    X00000245  C00001205  1
    X00000245  C00001385  1
    X00000246  C00000526  1
    X00000246  C00000527  -1
    X00000246  C00001206  1
    X00000246  C00001385  1
    X00000247  C00000533  1
    X00000247  C00000534  -1
    X00000247  C00001207  1
    X00000247  C00001385  1
    X00000248  C00000540  1
    X00000248  C00000541  -1
    X00000248  C00001208  1
    X00000248  C00001385  1
    X00000249  C00000547  1
    X00000249  C00000548  -1
    X00000249  C00001209  1
    X00000249  C00001385  1
    X00000250  C00000554  1
    X00000250  C00000555  -1
    X00000250  C00001210  1
    X00000250  C00001385  1
    X00000251  C00000561  1
    X00000251  C00000562  -1
    X00000251  C00001201  1
    X00000251  C00001386  -1
    X00000252  C00000568  1
    X00000252  C00000569  -1
    X00000252  C00001202  1
    X00000252  C00001386  1
    X00000253  C00000575  1
    X00000253  C00000576  -1
    X00000253  C00001203  1
    X00000253  C00001386  1
    X00000254  C00000582  1
    X00000254  C00000583  -1
    X00000254  C00001204  1
    X00000254  C00001386  1
    X00000255  C00000589  1
    X00000255  C00000590  -1
    X00000255  C00001205  1
    X00000255  C00001386  1
    X00000256  C00000596  1
    X00000256  C00000597  -1
    X00000256  C00001206  1
    X00000256  C00001386  1
    X00000257  C00000603  1
    X00000257  C00000604  -1
    X00000257  C00001207  1
    X00000257  C00001386  1
    X00000258  C00000610  1
    X00000258  C00000611  -1
    X00000258  C00001208  1
    X00000258  C00001386  1
    X00000259  C00000617  1
    X00000259  C00000618  -1
    X00000259  C00001209  1
    X00000259  C00001386  1
    X00000260  C00000624  1
    X00000260  C00000625  -1
    X00000260  C00001210  1
    X00000260  C00001386  1
    X00000261  C00000631  1
    X00000261  C00000632  -1
    X00000261  C00001201  1
    X00000261  C00001387  -1
    X00000262  C00000638  1
    X00000262  C00000639  -1
    X00000262  C00001202  1
    X00000262  C00001387  1
    X00000263  C00000645  1
    X00000263  C00000646  -1
    X00000263  C00001203  1
    X00000263  C00001387  1
    X00000264  C00000652  1
    X00000264  C00000653  -1
    X00000264  C00001204  1
    X00000264  C00001387  1
    X00000265  C00000659  1
    X00000265  C00000660  -1
    X00000265  C00001205  1
    X00000265  C00001387  1
    X00000266  C00000666  1
    X00000266  C00000667  -1
    X00000266  C00001206  1
    X00000266  C00001387  1
    X00000267  C00000673  1
    X00000267  C00000674  -1
    X00000267  C00001207  1
    X00000267  C00001387  1
    X00000268  C00000680  1
    X00000268  C00000681  -1
    X00000268  C00001208  1
    X00000268  C00001387  1
    X00000269  C00000687  1
    X00000269  C00000688  -1
    X00000269  C00001209  1
    X00000269  C00001387  1
    X00000270  C00000694  1
    X00000270  C00000695  -1
    X00000270  C00001210  1
    X00000270  C00001387  1
    X00000271  C00000701  1
    X00000271  C00000702  -1
    X00000271  C00001201  1
    X00000271  C00001388  -1
    X00000272  C00000708  1
    X00000272  C00000709  -1
    X00000272  C00001202  1
    X00000272  C00001388  1
    X00000273  C00000715  1
    X00000273  C00000716  -1
    X00000273  C00001203  1
    X00000273  C00001388  1
    X00000274  C00000722  1
    X00000274  C00000723  -1
    X00000274  C00001204  1
    X00000274  C00001388  1
    X00000275  C00000729  1
    X00000275  C00000730  -1
    X00000275  C00001205  1
    X00000275  C00001388  1
    X00000276  C00000736  1
    X00000276  C00000737  -1
    X00000276  C00001206  1
    X00000276  C00001388  1
    X00000277  C00000743  1
    X00000277  C00000744  -1
    X00000277  C00001207  1
    X00000277  C00001388  1
    X00000278  C00000750  1
    X00000278  C00000751  -1
    X00000278  C00001208  1
    X00000278  C00001388  1
    X00000279  C00000757  1
    X00000279  C00000758  -1
    X00000279  C00001209  1
    X00000279  C00001388  1
    X00000280  C00000764  1
    X00000280  C00000765  -1
    X00000280  C00001210  1
    X00000280  C00001388  1
    X00000281  C00000771  1
    X00000281  C00000772  -1
    X00000281  C00001201  1
    X00000281  C00001389  -1
    X00000282  C00000778  1
    X00000282  C00000779  -1
    X00000282  C00001202  1
    X00000282  C00001389  1
    X00000283  C00000785  1
    X00000283  C00000786  -1
    X00000283  C00001203  1
    X00000283  C00001389  1
    X00000284  C00000792  1
    X00000284  C00000793  -1
    X00000284  C00001204  1
    X00000284  C00001389  1
    X00000285  C00000799  1
    X00000285  C00000800  -1
    X00000285  C00001205  1
    X00000285  C00001389  1
    X00000286  C00000806  1
    X00000286  C00000807  -1
    X00000286  C00001206  1
    X00000286  C00001389  1
    X00000287  C00000813  1
    X00000287  C00000814  -1
    X00000287  C00001207  1
    X00000287  C00001389  1
    X00000288  C00000820  1
    X00000288  C00000821  -1
    X00000288  C00001208  1
    X00000288  C00001389  1
    X00000289  C00000827  1
    X00000289  C00000828  -1
    X00000289  C00001209  1
    X00000289  C00001389  1
    X00000290  C00000834  1
    X00000290  C00000835  -1
    X00000290  C00001210  1
    X00000290  C00001389  1
    X00000291  C00000841  1
    X00000291  C00000842  -1
    X00000291  C00001201  1
    X00000291  C00001390  -1
    X00000292  C00000848  1
    X00000292  C00000849  -1
    X00000292  C00001202  1
    X00000292  C00001390  1
    X00000293  C00000855  1
    X00000293  C00000856  -1
    X00000293  C00001203  1
    X00000293  C00001390  1
    X00000294  C00000862  1
    X00000294  C00000863  -1
    X00000294  C00001204  1
    X00000294  C00001390  1
    X00000295  C00000869  1
    X00000295  C00000870  -1
    X00000295  C00001205  1
    X00000295  C00001390  1
    X00000296  C00000876  1
    X00000296  C00000877  -1
    X00000296  C00001206  1
    X00000296  C00001390  1
    X00000297  C00000883  1
    X00000297  C00000884  -1
    X00000297  C00001207  1
    X00000297  C00001390  1
    X00000298  C00000890  1
    X00000298  C00000891  -1
    X00000298  C00001208  1
    X00000298  C00001390  1
    X00000299  C00000897  1
    X00000299  C00000898  -1
    X00000299  C00001209  1
    X00000299  C00001390  1
    X00000300  C00000904  1
    X00000300  C00000905  -1
    X00000300  C00001210  1
    X00000300  C00001390  1
    X00000301  C00000911  1
    X00000301  C00000912  -1
    X00000301  C00001201  1
    X00000301  C00001391  -1
    X00000302  C00000918  1
    X00000302  C00000919  -1
    X00000302  C00001202  1
    X00000302  C00001391  1
    X00000303  C00000925  1
    X00000303  C00000926  -1
    X00000303  C00001203  1
    X00000303  C00001391  1
    X00000304  C00000932  1
    X00000304  C00000933  -1
    X00000304  C00001204  1
    X00000304  C00001391  1
    X00000305  C00000939  1
    X00000305  C00000940  -1
    X00000305  C00001205  1
    X00000305  C00001391  1
    X00000306  C00000946  1
    X00000306  C00000947  -1
    X00000306  C00001206  1
    X00000306  C00001391  1
    X00000307  C00000953  1
    X00000307  C00000954  -1
    X00000307  C00001207  1
    X00000307  C00001391  1
    X00000308  C00000960  1
    X00000308  C00000961  -1
    X00000308  C00001208  1
    X00000308  C00001391  1
    X00000309  C00000967  1
    X00000309  C00000968  -1
    X00000309  C00001209  1
    X00000309  C00001391  1
    X00000310  C00000974  1
    X00000310  C00000975  -1
    X00000310  C00001210  1
    X00000310  C00001391  1
    X00000311  C00000981  1
    X00000311  C00000982  -1
    X00000311  C00001201  1
    X00000311  C00001392  -1
    X00000312  C00000988  1
    X00000312  C00000989  -1
    X00000312  C00001202  1
    X00000312  C00001392  1
    X00000313  C00000995  1
    X00000313  C00000996  -1
    X00000313  C00001203  1
    X00000313  C00001392  1
    X00000314  C00001002  1
    X00000314  C00001003  -1
    X00000314  C00001204  1
    X00000314  C00001392  1
    X00000315  C00001009  1
    X00000315  C00001010  -1
    X00000315  C00001205  1
    X00000315  C00001392  1
    X00000316  C00001016  1
    X00000316  C00001017  -1
    X00000316  C00001206  1
    X00000316  C00001392  1
    X00000317  C00001023  1
    X00000317  C00001024  -1
    X00000317  C00001207  1
    X00000317  C00001392  1
    X00000318  C00001030  1
    X00000318  C00001031  -1
    X00000318  C00001208  1
    X00000318  C00001392  1
    X00000319  C00001037  1
    X00000319  C00001038  -1
    X00000319  C00001209  1
    X00000319  C00001392  1
    X00000320  C00001044  1
    X00000320  C00001045  -1
    X00000320  C00001210  1
    X00000320  C00001392  1
    X00000321  C00001051  1
    X00000321  C00001052  -1
    X00000321  C00001201  1
    X00000321  C00001393  -1
    X00000322  C00001058  1
    X00000322  C00001059  -1
    X00000322  C00001202  1
    X00000322  C00001393  1
    X00000323  C00001065  1
    X00000323  C00001066  -1
    X00000323  C00001203  1
    X00000323  C00001393  1
    X00000324  C00001072  1
    X00000324  C00001073  -1
    X00000324  C00001204  1
    X00000324  C00001393  1
    X00000325  C00001079  1
    X00000325  C00001080  -1
    X00000325  C00001205  1
    X00000325  C00001393  1
    X00000326  C00001086  1
    X00000326  C00001087  -1
    X00000326  C00001206  1
    X00000326  C00001393  1
    X00000327  C00001093  1
    X00000327  C00001094  -1
    X00000327  C00001207  1
    X00000327  C00001393  1
    X00000328  C00001100  1
    X00000328  C00001101  -1
    X00000328  C00001208  1
    X00000328  C00001393  1
    X00000329  C00001107  1
    X00000329  C00001108  -1
    X00000329  C00001209  1
    X00000329  C00001393  1
    X00000330  C00001114  1
    X00000330  C00001115  -1
    X00000330  C00001210  1
    X00000330  C00001393  1
    X00000331  C00001121  1
    X00000331  C00001122  -1
    X00000331  C00001201  1
    X00000331  C00001394  -1
    X00000332  C00001128  1
    X00000332  C00001129  -1
    X00000332  C00001202  1
    X00000332  C00001394  1
    X00000333  C00001135  1
    X00000333  C00001136  -1
    X00000333  C00001203  1
    X00000333  C00001394  1
    X00000334  C00001142  1
    X00000334  C00001143  -1
    X00000334  C00001204  1
    X00000334  C00001394  1
    X00000335  C00001149  1
    X00000335  C00001150  -1
    X00000335  C00001205  1
    X00000335  C00001394  1
    X00000336  C00001156  1
    X00000336  C00001157  -1
    X00000336  C00001206  1
    X00000336  C00001394  1
    X00000337  C00001163  1
    X00000337  C00001164  -1
    X00000337  C00001207  1
    X00000337  C00001394  1
    X00000338  C00001170  1
    X00000338  C00001171  -1
    X00000338  C00001208  1
    X00000338  C00001394  1
    X00000339  C00001177  1
    X00000339  C00001178  -1
    X00000339  C00001209  1
    X00000339  C00001394  1
    X00000340  C00001184  1
    X00000340  C00001185  -1
    X00000340  C00001210  1
    X00000340  C00001394  1
    X00000341  C00000002  1
    X00000341  C00001211  -1
    X00000341  C00001395  -1
    X00000342  C00000009  1
    X00000342  C00001212  -1
    X00000342  C00001395  1
    X00000343  C00000016  1
    X00000343  C00001213  -1
    X00000343  C00001395  1
    X00000344  C00000023  1
    X00000344  C00001214  -1
    X00000344  C00001395  1
    X00000345  C00000030  1
    X00000345  C00001215  -1
    X00000345  C00001395  1
    X00000346  C00000037  1
    X00000346  C00001216  -1
    X00000346  C00001395  1
    X00000347  C00000044  1
    X00000347  C00001217  -1
    X00000347  C00001395  1
    X00000348  C00000051  1
    X00000348  C00001218  -1
    X00000348  C00001395  1
    X00000349  C00000058  1
    X00000349  C00001219  -1
    X00000349  C00001395  1
    X00000350  C00000065  1
    X00000350  C00001220  -1
    X00000350  C00001395  1
    X00000351  C00000072  1
    X00000351  C00001211  1
    X00000351  C00001396  -1
    X00000352  C00000079  1
    X00000352  C00001212  1
    X00000352  C00001396  1
    X00000353  C00000086  1
    X00000353  C00001213  1
    X00000353  C00001396  1
    X00000354  C00000093  1
    X00000354  C00001214  1
    X00000354  C00001396  1
    X00000355  C00000100  1
    X00000355  C00001215  1
    X00000355  C00001396  1
    X00000356  C00000107  1
    X00000356  C00001216  1
    X00000356  C00001396  1
    X00000357  C00000114  1
    X00000357  C00001217  1
    X00000357  C00001396  1
    X00000358  C00000121  1
    X00000358  C00001218  1
    X00000358  C00001396  1
    X00000359  C00000128  1
    X00000359  C00001219  1
    X00000359  C00001396  1
    X00000360  C00000135  1
    X00000360  C00001220  1
    X00000360  C00001396  1
    X00000361  C00000142  1
    X00000361  C00001211  1
    X00000361  C00001397  -1
    X00000362  C00000149  1
    X00000362  C00001212  1
    X00000362  C00001397  1
    X00000363  C00000156  1
    X00000363  C00001213  1
    X00000363  C00001397  1
    X00000364  C00000163  1
    X00000364  C00001214  1
    X00000364  C00001397  1
    X00000365  C00000170  1
    X00000365  C00001215  1
    X00000365  C00001397  1
    X00000366  C00000177  1
    X00000366  C00001216  1
    X00000366  C00001397  1
    X00000367  C00000184  1
    X00000367  C00001217  1
    X00000367  C00001397  1
    X00000368  C00000191  1
    X00000368  C00001218  1
    X00000368  C00001397  1
    X00000369  C00000198  1
    X00000369  C00001219  1
    X00000369  C00001397  1
    X00000370  C00000205  1
    X00000370  C00001220  1
    X00000370  C00001397  1
    X00000371  C00000212  1
    X00000371  C00001211  1
    X00000371  C00001398  -1
    X00000372  C00000219  1
    X00000372  C00001212  1
    X00000372  C00001398  1
    X00000373  C00000226  1
    X00000373  C00001213  1
    X00000373  C00001398  1
    X00000374  C00000233  1
    X00000374  C00001214  1
    X00000374  C00001398  1
    X00000375  C00000240  1
    X00000375  C00001215  1
    X00000375  C00001398  1
    X00000376  C00000247  1
    X00000376  C00001216  1
    X00000376  C00001398  1
    X00000377  C00000254  1
    X00000377  C00001217  1
    X00000377  C00001398  1
    X00000378  C00000261  1
    X00000378  C00001218  1
    X00000378  C00001398  1
    X00000379  C00000268  1
    X00000379  C00001219  1
    X00000379  C00001398  1
    X00000380  C00000275  1
    X00000380  C00001220  1
    X00000380  C00001398  1
    X00000381  C00000282  1
    X00000381  C00001211  1
    X00000381  C00001399  -1
    X00000382  C00000289  1
    X00000382  C00001212  1
    X00000382  C00001399  1
    X00000383  C00000296  1
    X00000383  C00001213  1
    X00000383  C00001399  1
    X00000384  C00000303  1
    X00000384  C00001214  1
    X00000384  C00001399  1
    X00000385  C00000310  1
    X00000385  C00001215  1
    X00000385  C00001399  1
    X00000386  C00000317  1
    X00000386  C00001216  1
    X00000386  C00001399  1
    X00000387  C00000324  1
    X00000387  C00001217  1
    X00000387  C00001399  1
    X00000388  C00000331  1
    X00000388  C00001218  1
    X00000388  C00001399  1
    X00000389  C00000338  1
    X00000389  C00001219  1
    X00000389  C00001399  1
    X00000390  C00000345  1
    X00000390  C00001220  1
    X00000390  C00001399  1
    X00000391  C00000352  1
    X00000391  C00001211  1
    X00000391  C00001400  -1
    X00000392  C00000359  1
    X00000392  C00001212  1
    X00000392  C00001400  1
    X00000393  C00000366  1
    X00000393  C00001213  1
    X00000393  C00001400  1
    X00000394  C00000373  1
    X00000394  C00001214  1
    X00000394  C00001400  1
    X00000395  C00000380  1
    X00000395  C00001215  1
    X00000395  C00001400  1
    X00000396  C00000387  1
    X00000396  C00001216  1
    X00000396  C00001400  1
    X00000397  C00000394  1
    X00000397  C00001217  1
    X00000397  C00001400  1
    X00000398  C00000401  1
    X00000398  C00001218  1
    X00000398  C00001400  1
    X00000399  C00000408  1
    X00000399  C00001219  1
    X00000399  C00001400  1
    X00000400  C00000415  1
    X00000400  C00001220  1
    X00000400  C00001400  1
    X00000401  C00000422  1
    X00000401  C00001211  1
    X00000401  C00001401  -1
    X00000402  C00000429  1
    X00000402  C00001212  1
    X00000402  C00001401  1
    X00000403  C00000436  1
    X00000403  C00001213  1
    X00000403  C00001401  1
    X00000404  C00000443  1
    X00000404  C00001214  1
    X00000404  C00001401  1
    X00000405  C00000450  1
    X00000405  C00001215  1
    X00000405  C00001401  1
    X00000406  C00000457  1
    X00000406  C00001216  1
    X00000406  C00001401  1
    X00000407  C00000464  1
    X00000407  C00001217  1
    X00000407  C00001401  1
    X00000408  C00000471  1
    X00000408  C00001218  1
    X00000408  C00001401  1
    X00000409  C00000478  1
    X00000409  C00001219  1
    X00000409  C00001401  1
    X00000410  C00000485  1
    X00000410  C00001220  1
    X00000410  C00001401  1
    X00000411  C00000492  1
    X00000411  C00001211  1
    X00000411  C00001402  -1
    X00000412  C00000499  1
    X00000412  C00001212  1
    X00000412  C00001402  1
    X00000413  C00000506  1
    X00000413  C00001213  1
    X00000413  C00001402  1
    X00000414  C00000513  1
    X00000414  C00001214  1
    X00000414  C00001402  1
    X00000415  C00000520  1
    X00000415  C00001215  1
    X00000415  C00001402  1
    X00000416  C00000527  1
    X00000416  C00001216  1
    X00000416  C00001402  1
    X00000417  C00000534  1
    X00000417  C00001217  1
    X00000417  C00001402  1
    X00000418  C00000541  1
    X00000418  C00001218  1
    X00000418  C00001402  1
    X00000419  C00000548  1
    X00000419  C00001219  1
    X00000419  C00001402  1
    X00000420  C00000555  1
    X00000420  C00001220  1
    X00000420  C00001402  1
    X00000421  C00000562  1
    X00000421  C00001211  1
    X00000421  C00001403  -1
    X00000422  C00000569  1
    X00000422  C00001212  1
    X00000422  C00001403  1
    X00000423  C00000576  1
    X00000423  C00001213  1
    X00000423  C00001403  1
    X00000424  C00000583  1
    X00000424  C00001214  1
    X00000424  C00001403  1
    X00000425  C00000590  1
    X00000425  C00001215  1
    X00000425  C00001403  1
    X00000426  C00000597  1
    X00000426  C00001216  1
    X00000426  C00001403  1
    X00000427  C00000604  1
    X00000427  C00001217  1
    X00000427  C00001403  1
    X00000428  C00000611  1
    X00000428  C00001218  1
    X00000428  C00001403  1
    X00000429  C00000618  1
    X00000429  C00001219  1
    X00000429  C00001403  1
    X00000430  C00000625  1
    X00000430  C00001220  1
    X00000430  C00001403  1
    X00000431  C00000632  1
    X00000431  C00001211  1
    X00000431  C00001404  -1
    X00000432  C00000639  1
    X00000432  C00001212  1
    X00000432  C00001404  1
    X00000433  C00000646  1
    X00000433  C00001213  1
    X00000433  C00001404  1
    X00000434  C00000653  1
    X00000434  C00001214  1
    X00000434  C00001404  1
    X00000435  C00000660  1
    X00000435  C00001215  1
    X00000435  C00001404  1
    X00000436  C00000667  1
    X00000436  C00001216  1
    X00000436  C00001404  1
    X00000437  C00000674  1
    X00000437  C00001217  1
    X00000437  C00001404  1
    X00000438  C00000681  1
    X00000438  C00001218  1
    X00000438  C00001404  1
    X00000439  C00000688  1
    X00000439  C00001219  1
    X00000439  C00001404  1
    X00000440  C00000695  1
    X00000440  C00001220  1
    X00000440  C00001404  1
    X00000441  C00000702  1
    X00000441  C00001211  1
    X00000441  C00001405  -1
    X00000442  C00000709  1
    X00000442  C00001212  1
    X00000442  C00001405  1
    X00000443  C00000716  1
    X00000443  C00001213  1
    X00000443  C00001405  1
    X00000444  C00000723  1
    X00000444  C00001214  1
    X00000444  C00001405  1
    X00000445  C00000730  1
    X00000445  C00001215  1
    X00000445  C00001405  1
    X00000446  C00000737  1
    X00000446  C00001216  1
    X00000446  C00001405  1
    X00000447  C00000744  1
    X00000447  C00001217  1
    X00000447  C00001405  1
    X00000448  C00000751  1
    X00000448  C00001218  1
    X00000448  C00001405  1
    X00000449  C00000758  1
    X00000449  C00001219  1
    X00000449  C00001405  1
    X00000450  C00000765  1
    X00000450  C00001220  1
    X00000450  C00001405  1
    X00000451  C00000772  1
    X00000451  C00001211  1
    X00000451  C00001406  -1
    X00000452  C00000779  1
    X00000452  C00001212  1
    X00000452  C00001406  1
    X00000453  C00000786  1
    X00000453  C00001213  1
    X00000453  C00001406  1
    X00000454  C00000793  1
    X00000454  C00001214  1
    X00000454  C00001406  1
    X00000455  C00000800  1
    X00000455  C00001215  1
    X00000455  C00001406  1
    X00000456  C00000807  1
    X00000456  C00001216  1
    X00000456  C00001406  1
    X00000457  C00000814  1
    X00000457  C00001217  1
    X00000457  C00001406  1
    X00000458  C00000821  1
    X00000458  C00001218  1
    X00000458  C00001406  1
    X00000459  C00000828  1
    X00000459  C00001219  1
    X00000459  C00001406  1
    X00000460  C00000835  1
    X00000460  C00001220  1
    X00000460  C00001406  1
    X00000461  C00000842  1
    X00000461  C00001211  1
    X00000461  C00001407  -1
    X00000462  C00000849  1
    X00000462  C00001212  1
    X00000462  C00001407  1
    X00000463  C00000856  1
    X00000463  C00001213  1
    X00000463  C00001407  1
    X00000464  C00000863  1
    X00000464  C00001214  1
    X00000464  C00001407  1
    X00000465  C00000870  1
    X00000465  C00001215  1
    X00000465  C00001407  1
    X00000466  C00000877  1
    X00000466  C00001216  1
    X00000466  C00001407  1
    X00000467  C00000884  1
    X00000467  C00001217  1
    X00000467  C00001407  1
    X00000468  C00000891  1
    X00000468  C00001218  1
    X00000468  C00001407  1
    X00000469  C00000898  1
    X00000469  C00001219  1
    X00000469  C00001407  1
    X00000470  C00000905  1
    X00000470  C00001220  1
    X00000470  C00001407  1
    X00000471  C00000912  1
    X00000471  C00001211  1
    X00000471  C00001408  -1
    X00000472  C00000919  1
    X00000472  C00001212  1
    X00000472  C00001408  1
    X00000473  C00000926  1
    X00000473  C00001213  1
    X00000473  C00001408  1
    X00000474  C00000933  1
    X00000474  C00001214  1
    X00000474  C00001408  1
    X00000475  C00000940  1
    X00000475  C00001215  1
    X00000475  C00001408  1
    X00000476  C00000947  1
    X00000476  C00001216  1
    X00000476  C00001408  1
    X00000477  C00000954  1
    X00000477  C00001217  1
    X00000477  C00001408  1
    X00000478  C00000961  1
    X00000478  C00001218  1
    X00000478  C00001408  1
    X00000479  C00000968  1
    X00000479  C00001219  1
    X00000479  C00001408  1
    X00000480  C00000975  1
    X00000480  C00001220  1
    X00000480  C00001408  1
    X00000481  C00000982  1
    X00000481  C00001211  1
    X00000481  C00001409  -1
    X00000482  C00000989  1
    X00000482  C00001212  1
    X00000482  C00001409  1
    X00000483  C00000996  1
    X00000483  C00001213  1
    X00000483  C00001409  1
    X00000484  C00001003  1
    X00000484  C00001214  1
    X00000484  C00001409  1
    X00000485  C00001010  1
    X00000485  C00001215  1
    X00000485  C00001409  1
    X00000486  C00001017  1
    X00000486  C00001216  1
    X00000486  C00001409  1
    X00000487  C00001024  1
    X00000487  C00001217  1
    X00000487  C00001409  1
    X00000488  C00001031  1
    X00000488  C00001218  1
    X00000488  C00001409  1
    X00000489  C00001038  1
    X00000489  C00001219  1
    X00000489  C00001409  1
    X00000490  C00001045  1
    X00000490  C00001220  1
    X00000490  C00001409  1
    X00000491  C00001052  1
    X00000491  C00001211  1
    X00000491  C00001410  -1
    X00000492  C00001059  1
    X00000492  C00001212  1
    X00000492  C00001410  1
    X00000493  C00001066  1
    X00000493  C00001213  1
    X00000493  C00001410  1
    X00000494  C00001073  1
    X00000494  C00001214  1
    X00000494  C00001410  1
    X00000495  C00001080  1
    X00000495  C00001215  1
    X00000495  C00001410  1
    X00000496  C00001087  1
    X00000496  C00001216  1
    X00000496  C00001410  1
    X00000497  C00001094  1
    X00000497  C00001217  1
    X00000497  C00001410  1
    X00000498  C00001101  1
    X00000498  C00001218  1
    X00000498  C00001410  1
    X00000499  C00001108  1
    X00000499  C00001219  1
    X00000499  C00001410  1
    X00000500  C00001115  1
    X00000500  C00001220  1
    X00000500  C00001410  1
    X00000501  C00001122  1
    X00000501  C00001211  1
    X00000501  C00001411  -1
    X00000502  C00001129  1
    X00000502  C00001212  1
    X00000502  C00001411  1
    X00000503  C00001136  1
    X00000503  C00001213  1
    X00000503  C00001411  1
    X00000504  C00001143  1
    X00000504  C00001214  1
    X00000504  C00001411  1
    X00000505  C00001150  1
    X00000505  C00001215  1
    X00000505  C00001411  1
    X00000506  C00001157  1
    X00000506  C00001216  1
    X00000506  C00001411  1
    X00000507  C00001164  1
    X00000507  C00001217  1
    X00000507  C00001411  1
    X00000508  C00001171  1
    X00000508  C00001218  1
    X00000508  C00001411  1
    X00000509  C00001178  1
    X00000509  C00001219  1
    X00000509  C00001411  1
    X00000510  C00001185  1
    X00000510  C00001220  1
    X00000510  C00001411  1
    X00000511  C00000002  1
    X00000511  C00000003  -1
    X00000511  C00001221  -1
    X00000511  C00001412  -1
    X00000512  C00000009  1
    X00000512  C00000010  -1
    X00000512  C00001222  -1
    X00000512  C00001412  1
    X00000513  C00000016  1
    X00000513  C00000017  -1
    X00000513  C00001223  -1
    X00000513  C00001412  1
    X00000514  C00000023  1
    X00000514  C00000024  -1
    X00000514  C00001224  -1
    X00000514  C00001412  1
    X00000515  C00000030  1
    X00000515  C00000031  -1
    X00000515  C00001225  -1
    X00000515  C00001412  1
    X00000516  C00000037  1
    X00000516  C00000038  -1
    X00000516  C00001226  -1
    X00000516  C00001412  1
    X00000517  C00000044  1
    X00000517  C00000045  -1
    X00000517  C00001227  -1
    X00000517  C00001412  1
    X00000518  C00000051  1
    X00000518  C00000052  -1
    X00000518  C00001228  -1
    X00000518  C00001412  1
    X00000519  C00000058  1
    X00000519  C00000059  -1
    X00000519  C00001229  -1
    X00000519  C00001412  1
    X00000520  C00000065  1
    X00000520  C00000066  -1
    X00000520  C00001230  -1
    X00000520  C00001412  1
    X00000521  C00000072  1
    X00000521  C00000073  -1
    X00000521  C00001221  1
    X00000521  C00001413  -1
    X00000522  C00000079  1
    X00000522  C00000080  -1
    X00000522  C00001222  1
    X00000522  C00001413  1
    X00000523  C00000086  1
    X00000523  C00000087  -1
    X00000523  C00001223  1
    X00000523  C00001413  1
    X00000524  C00000093  1
    X00000524  C00000094  -1
    X00000524  C00001224  1
    X00000524  C00001413  1
    X00000525  C00000100  1
    X00000525  C00000101  -1
    X00000525  C00001225  1
    X00000525  C00001413  1
    X00000526  C00000107  1
    X00000526  C00000108  -1
    X00000526  C00001226  1
    X00000526  C00001413  1
    X00000527  C00000114  1
    X00000527  C00000115  -1
    X00000527  C00001227  1
    X00000527  C00001413  1
    X00000528  C00000121  1
    X00000528  C00000122  -1
    X00000528  C00001228  1
    X00000528  C00001413  1
    X00000529  C00000128  1
    X00000529  C00000129  -1
    X00000529  C00001229  1
    X00000529  C00001413  1
    X00000530  C00000135  1
    X00000530  C00000136  -1
    X00000530  C00001230  1
    X00000530  C00001413  1
    X00000531  C00000142  1
    X00000531  C00000143  -1
    X00000531  C00001221  1
    X00000531  C00001414  -1
    X00000532  C00000149  1
    X00000532  C00000150  -1
    X00000532  C00001222  1
    X00000532  C00001414  1
    X00000533  C00000156  1
    X00000533  C00000157  -1
    X00000533  C00001223  1
    X00000533  C00001414  1
    X00000534  C00000163  1
    X00000534  C00000164  -1
    X00000534  C00001224  1
    X00000534  C00001414  1
    X00000535  C00000170  1
    X00000535  C00000171  -1
    X00000535  C00001225  1
    X00000535  C00001414  1
    X00000536  C00000177  1
    X00000536  C00000178  -1
    X00000536  C00001226  1
    X00000536  C00001414  1
    X00000537  C00000184  1
    X00000537  C00000185  -1
    X00000537  C00001227  1
    X00000537  C00001414  1
    X00000538  C00000191  1
    X00000538  C00000192  -1
    X00000538  C00001228  1
    X00000538  C00001414  1
    X00000539  C00000198  1
    X00000539  C00000199  -1
    X00000539  C00001229  1
    X00000539  C00001414  1
    X00000540  C00000205  1
    X00000540  C00000206  -1
    X00000540  C00001230  1
    X00000540  C00001414  1
    X00000541  C00000212  1
    X00000541  C00000213  -1
    X00000541  C00001221  1
    X00000541  C00001415  -1
    X00000542  C00000219  1
    X00000542  C00000220  -1
    X00000542  C00001222  1
    X00000542  C00001415  1
    X00000543  C00000226  1
    X00000543  C00000227  -1
    X00000543  C00001223  1
    X00000543  C00001415  1
    X00000544  C00000233  1
    X00000544  C00000234  -1
    X00000544  C00001224  1
    X00000544  C00001415  1
    X00000545  C00000240  1
    X00000545  C00000241  -1
    X00000545  C00001225  1
    X00000545  C00001415  1
    X00000546  C00000247  1
    X00000546  C00000248  -1
    X00000546  C00001226  1
    X00000546  C00001415  1
    X00000547  C00000254  1
    X00000547  C00000255  -1
    X00000547  C00001227  1
    X00000547  C00001415  1
    X00000548  C00000261  1
    X00000548  C00000262  -1
    X00000548  C00001228  1
    X00000548  C00001415  1
    X00000549  C00000268  1
    X00000549  C00000269  -1
    X00000549  C00001229  1
    X00000549  C00001415  1
    X00000550  C00000275  1
    X00000550  C00000276  -1
    X00000550  C00001230  1
    X00000550  C00001415  1
    X00000551  C00000282  1
    X00000551  C00000283  -1
    X00000551  C00001221  1
    X00000551  C00001416  -1
    X00000552  C00000289  1
    X00000552  C00000290  -1
    X00000552  C00001222  1
    X00000552  C00001416  1
    X00000553  C00000296  1
    X00000553  C00000297  -1
    X00000553  C00001223  1
    X00000553  C00001416  1
    X00000554  C00000303  1
    X00000554  C00000304  -1
    X00000554  C00001224  1
    X00000554  C00001416  1
    X00000555  C00000310  1
    X00000555  C00000311  -1
    X00000555  C00001225  1
    X00000555  C00001416  1
    X00000556  C00000317  1
    X00000556  C00000318  -1
    X00000556  C00001226  1
    X00000556  C00001416  1
    X00000557  C00000324  1
    X00000557  C00000325  -1
    X00000557  C00001227  1
    X00000557  C00001416  1
    X00000558  C00000331  1
    X00000558  C00000332  -1
    X00000558  C00001228  1
    X00000558  C00001416  1
    X00000559  C00000338  1
    X00000559  C00000339  -1
    X00000559  C00001229  1
    X00000559  C00001416  1
    X00000560  C00000345  1
    X00000560  C00000346  -1
    X00000560  C00001230  1
    X00000560  C00001416  1
    X00000561  C00000352  1
    X00000561  C00000353  -1
    X00000561  C00001221  1
    X00000561  C00001417  -1
    X00000562  C00000359  1
    X00000562  C00000360  -1
    X00000562  C00001222  1
    X00000562  C00001417  1
    X00000563  C00000366  1
    X00000563  C00000367  -1
    X00000563  C00001223  1
    X00000563  C00001417  1
    X00000564  C00000373  1
    X00000564  C00000374  -1
    X00000564  C00001224  1
    X00000564  C00001417  1
    X00000565  C00000380  1
    X00000565  C00000381  -1
    X00000565  C00001225  1
    X00000565  C00001417  1
    X00000566  C00000387  1
    X00000566  C00000388  -1
    X00000566  C00001226  1
    X00000566  C00001417  1
    X00000567  C00000394  1
    X00000567  C00000395  -1
    X00000567  C00001227  1
    X00000567  C00001417  1
    X00000568  C00000401  1
    X00000568  C00000402  -1
    X00000568  C00001228  1
    X00000568  C00001417  1
    X00000569  C00000408  1
    X00000569  C00000409  -1
    X00000569  C00001229  1
    X00000569  C00001417  1
    X00000570  C00000415  1
    X00000570  C00000416  -1
    X00000570  C00001230  1
    X00000570  C00001417  1
    X00000571  C00000422  1
    X00000571  C00000423  -1
    X00000571  C00001221  1
    X00000571  C00001418  -1
    X00000572  C00000429  1
    X00000572  C00000430  -1
    X00000572  C00001222  1
    X00000572  C00001418  1
    X00000573  C00000436  1
    X00000573  C00000437  -1
    X00000573  C00001223  1
    X00000573  C00001418  1
    X00000574  C00000443  1
    X00000574  C00000444  -1
    X00000574  C00001224  1
    X00000574  C00001418  1
    X00000575  C00000450  1
    X00000575  C00000451  -1
    X00000575  C00001225  1
    X00000575  C00001418  1
    X00000576  C00000457  1
    X00000576  C00000458  -1
    X00000576  C00001226  1
    X00000576  C00001418  1
    X00000577  C00000464  1
    X00000577  C00000465  -1
    X00000577  C00001227  1
    X00000577  C00001418  1
    X00000578  C00000471  1
    X00000578  C00000472  -1
    X00000578  C00001228  1
    X00000578  C00001418  1
    X00000579  C00000478  1
    X00000579  C00000479  -1
    X00000579  C00001229  1
    X00000579  C00001418  1
    X00000580  C00000485  1
    X00000580  C00000486  -1
    X00000580  C00001230  1
    X00000580  C00001418  1
    X00000581  C00000492  1
    X00000581  C00000493  -1
    X00000581  C00001221  1
    X00000581  C00001419  -1
    X00000582  C00000499  1
    X00000582  C00000500  -1
    X00000582  C00001222  1
    X00000582  C00001419  1
    X00000583  C00000506  1
    X00000583  C00000507  -1
    X00000583  C00001223  1
    X00000583  C00001419  1
    X00000584  C00000513  1
    X00000584  C00000514  -1
    X00000584  C00001224  1
    X00000584  C00001419  1
    X00000585  C00000520  1
    X00000585  C00000521  -1
    X00000585  C00001225  1
    X00000585  C00001419  1
    X00000586  C00000527  1
    X00000586  C00000528  -1
    X00000586  C00001226  1
    X00000586  C00001419  1
    X00000587  C00000534  1
    X00000587  C00000535  -1
    X00000587  C00001227  1
    X00000587  C00001419  1
    X00000588  C00000541  1
    X00000588  C00000542  -1
    X00000588  C00001228  1
    X00000588  C00001419  1
    X00000589  C00000548  1
    X00000589  C00000549  -1
    X00000589  C00001229  1
    X00000589  C00001419  1
    X00000590  C00000555  1
    X00000590  C00000556  -1
    X00000590  C00001230  1
    X00000590  C00001419  1
    X00000591  C00000562  1
    X00000591  C00000563  -1
    X00000591  C00001221  1
    X00000591  C00001420  -1
    X00000592  C00000569  1
    X00000592  C00000570  -1
    X00000592  C00001222  1
    X00000592  C00001420  1
    X00000593  C00000576  1
    X00000593  C00000577  -1
    X00000593  C00001223  1
    X00000593  C00001420  1
    X00000594  C00000583  1
    X00000594  C00000584  -1
    X00000594  C00001224  1
    X00000594  C00001420  1
    X00000595  C00000590  1
    X00000595  C00000591  -1
    X00000595  C00001225  1
    X00000595  C00001420  1
    X00000596  C00000597  1
    X00000596  C00000598  -1
    X00000596  C00001226  1
    X00000596  C00001420  1
    X00000597  C00000604  1
    X00000597  C00000605  -1
    X00000597  C00001227  1
    X00000597  C00001420  1
    X00000598  C00000611  1
    X00000598  C00000612  -1
    X00000598  C00001228  1
    X00000598  C00001420  1
    X00000599  C00000618  1
    X00000599  C00000619  -1
    X00000599  C00001229  1
    X00000599  C00001420  1
    X00000600  C00000625  1
    X00000600  C00000626  -1
    X00000600  C00001230  1
    X00000600  C00001420  1
    X00000601  C00000632  1
    X00000601  C00000633  -1
    X00000601  C00001221  1
    X00000601  C00001421  -1
    X00000602  C00000639  1
    X00000602  C00000640  -1
    X00000602  C00001222  1
    X00000602  C00001421  1
    X00000603  C00000646  1
    X00000603  C00000647  -1
    X00000603  C00001223  1
    X00000603  C00001421  1
    X00000604  C00000653  1
    X00000604  C00000654  -1
    X00000604  C00001224  1
    X00000604  C00001421  1
    X00000605  C00000660  1
    X00000605  C00000661  -1
    X00000605  C00001225  1
    X00000605  C00001421  1
    X00000606  C00000667  1
    X00000606  C00000668  -1
    X00000606  C00001226  1
    X00000606  C00001421  1
    X00000607  C00000674  1
    X00000607  C00000675  -1
    X00000607  C00001227  1
    X00000607  C00001421  1
    X00000608  C00000681  1
    X00000608  C00000682  -1
    X00000608  C00001228  1
    X00000608  C00001421  1
    X00000609  C00000688  1
    X00000609  C00000689  -1
    X00000609  C00001229  1
    X00000609  C00001421  1
    X00000610  C00000695  1
    X00000610  C00000696  -1
    X00000610  C00001230  1
    X00000610  C00001421  1
    X00000611  C00000702  1
    X00000611  C00000703  -1
    X00000611  C00001221  1
    X00000611  C00001422  -1
    X00000612  C00000709  1
    X00000612  C00000710  -1
    X00000612  C00001222  1
    X00000612  C00001422  1
    X00000613  C00000716  1
    X00000613  C00000717  -1
    X00000613  C00001223  1
    X00000613  C00001422  1
    X00000614  C00000723  1
    X00000614  C00000724  -1
    X00000614  C00001224  1
    X00000614  C00001422  1
    X00000615  C00000730  1
    X00000615  C00000731  -1
    X00000615  C00001225  1
    X00000615  C00001422  1
    X00000616  C00000737  1
    X00000616  C00000738  -1
    X00000616  C00001226  1
    X00000616  C00001422  1
    X00000617  C00000744  1
    X00000617  C00000745  -1
    X00000617  C00001227  1
    X00000617  C00001422  1
    X00000618  C00000751  1
    X00000618  C00000752  -1
    X00000618  C00001228  1
    X00000618  C00001422  1
    X00000619  C00000758  1
    X00000619  C00000759  -1
    X00000619  C00001229  1
    X00000619  C00001422  1
    X00000620  C00000765  1
    X00000620  C00000766  -1
    X00000620  C00001230  1
    X00000620  C00001422  1
    X00000621  C00000772  1
    X00000621  C00000773  -1
    X00000621  C00001221  1
    X00000621  C00001423  -1
    X00000622  C00000779  1
    X00000622  C00000780  -1
    X00000622  C00001222  1
    X00000622  C00001423  1
    X00000623  C00000786  1
    X00000623  C00000787  -1
    X00000623  C00001223  1
    X00000623  C00001423  1
    X00000624  C00000793  1
    X00000624  C00000794  -1
    X00000624  C00001224  1
    X00000624  C00001423  1
    X00000625  C00000800  1
    X00000625  C00000801  -1
    X00000625  C00001225  1
    X00000625  C00001423  1
    X00000626  C00000807  1
    X00000626  C00000808  -1
    X00000626  C00001226  1
    X00000626  C00001423  1
    X00000627  C00000814  1
    X00000627  C00000815  -1
    X00000627  C00001227  1
    X00000627  C00001423  1
    X00000628  C00000821  1
    X00000628  C00000822  -1
    X00000628  C00001228  1
    X00000628  C00001423  1
    X00000629  C00000828  1
    X00000629  C00000829  -1
    X00000629  C00001229  1
    X00000629  C00001423  1
    X00000630  C00000835  1
    X00000630  C00000836  -1
    X00000630  C00001230  1
    X00000630  C00001423  1
    X00000631  C00000842  1
    X00000631  C00000843  -1
    X00000631  C00001221  1
    X00000631  C00001424  -1
    X00000632  C00000849  1
    X00000632  C00000850  -1
    X00000632  C00001222  1
    X00000632  C00001424  1
    X00000633  C00000856  1
    X00000633  C00000857  -1
    X00000633  C00001223  1
    X00000633  C00001424  1
    X00000634  C00000863  1
    X00000634  C00000864  -1
    X00000634  C00001224  1
    X00000634  C00001424  1
    X00000635  C00000870  1
    X00000635  C00000871  -1
    X00000635  C00001225  1
    X00000635  C00001424  1
    X00000636  C00000877  1
    X00000636  C00000878  -1
    X00000636  C00001226  1
    X00000636  C00001424  1
    X00000637  C00000884  1
    X00000637  C00000885  -1
    X00000637  C00001227  1
    X00000637  C00001424  1
    X00000638  C00000891  1
    X00000638  C00000892  -1
    X00000638  C00001228  1
    X00000638  C00001424  1
    X00000639  C00000898  1
    X00000639  C00000899  -1
    X00000639  C00001229  1
    X00000639  C00001424  1
    X00000640  C00000905  1
    X00000640  C00000906  -1
    X00000640  C00001230  1
    X00000640  C00001424  1
    X00000641  C00000912  1
    X00000641  C00000913  -1
    X00000641  C00001221  1
    X00000641  C00001425  -1
    X00000642  C00000919  1
    X00000642  C00000920  -1
    X00000642  C00001222  1
    X00000642  C00001425  1
    X00000643  C00000926  1
    X00000643  C00000927  -1
    X00000643  C00001223  1
    X00000643  C00001425  1
    X00000644  C00000933  1
    X00000644  C00000934  -1
    X00000644  C00001224  1
    X00000644  C00001425  1
    X00000645  C00000940  1
    X00000645  C00000941  -1
    X00000645  C00001225  1
    X00000645  C00001425  1
    X00000646  C00000947  1
    X00000646  C00000948  -1
    X00000646  C00001226  1
    X00000646  C00001425  1
    X00000647  C00000954  1
    X00000647  C00000955  -1
    X00000647  C00001227  1
    X00000647  C00001425  1
    X00000648  C00000961  1
    X00000648  C00000962  -1
    X00000648  C00001228  1
    X00000648  C00001425  1
    X00000649  C00000968  1
    X00000649  C00000969  -1
    X00000649  C00001229  1
    X00000649  C00001425  1
    X00000650  C00000975  1
    X00000650  C00000976  -1
    X00000650  C00001230  1
    X00000650  C00001425  1
    X00000651  C00000982  1
    X00000651  C00000983  -1
    X00000651  C00001221  1
    X00000651  C00001426  -1
    X00000652  C00000989  1
    X00000652  C00000990  -1
    X00000652  C00001222  1
    X00000652  C00001426  1
    X00000653  C00000996  1
    X00000653  C00000997  -1
    X00000653  C00001223  1
    X00000653  C00001426  1
    X00000654  C00001003  1
    X00000654  C00001004  -1
    X00000654  C00001224  1
    X00000654  C00001426  1
    X00000655  C00001010  1
    X00000655  C00001011  -1
    X00000655  C00001225  1
    X00000655  C00001426  1
    X00000656  C00001017  1
    X00000656  C00001018  -1
    X00000656  C00001226  1
    X00000656  C00001426  1
    X00000657  C00001024  1
    X00000657  C00001025  -1
    X00000657  C00001227  1
    X00000657  C00001426  1
    X00000658  C00001031  1
    X00000658  C00001032  -1
    X00000658  C00001228  1
    X00000658  C00001426  1
    X00000659  C00001038  1
    X00000659  C00001039  -1
    X00000659  C00001229  1
    X00000659  C00001426  1
    X00000660  C00001045  1
    X00000660  C00001046  -1
    X00000660  C00001230  1
    X00000660  C00001426  1
    X00000661  C00001052  1
    X00000661  C00001053  -1
    X00000661  C00001221  1
    X00000661  C00001427  -1
    X00000662  C00001059  1
    X00000662  C00001060  -1
    X00000662  C00001222  1
    X00000662  C00001427  1
    X00000663  C00001066  1
    X00000663  C00001067  -1
    X00000663  C00001223  1
    X00000663  C00001427  1
    X00000664  C00001073  1
    X00000664  C00001074  -1
    X00000664  C00001224  1
    X00000664  C00001427  1
    X00000665  C00001080  1
    X00000665  C00001081  -1
    X00000665  C00001225  1
    X00000665  C00001427  1
    X00000666  C00001087  1
    X00000666  C00001088  -1
    X00000666  C00001226  1
    X00000666  C00001427  1
    X00000667  C00001094  1
    X00000667  C00001095  -1
    X00000667  C00001227  1
    X00000667  C00001427  1
    X00000668  C00001101  1
    X00000668  C00001102  -1
    X00000668  C00001228  1
    X00000668  C00001427  1
    X00000669  C00001108  1
    X00000669  C00001109  -1
    X00000669  C00001229  1
    X00000669  C00001427  1
    X00000670  C00001115  1
    X00000670  C00001116  -1
    X00000670  C00001230  1
    X00000670  C00001427  1
    X00000671  C00001122  1
    X00000671  C00001123  -1
    X00000671  C00001221  1
    X00000671  C00001428  -1
    X00000672  C00001129  1
    X00000672  C00001130  -1
    X00000672  C00001222  1
    X00000672  C00001428  1
    X00000673  C00001136  1
    X00000673  C00001137  -1
    X00000673  C00001223  1
    X00000673  C00001428  1
    X00000674  C00001143  1
    X00000674  C00001144  -1
    X00000674  C00001224  1
    X00000674  C00001428  1
    X00000675  C00001150  1
    X00000675  C00001151  -1
    X00000675  C00001225  1
    X00000675  C00001428  1
    X00000676  C00001157  1
    X00000676  C00001158  -1
    X00000676  C00001226  1
    X00000676  C00001428  1
    X00000677  C00001164  1
    X00000677  C00001165  -1
    X00000677  C00001227  1
    X00000677  C00001428  1
    X00000678  C00001171  1
    X00000678  C00001172  -1
    X00000678  C00001228  1
    X00000678  C00001428  1
    X00000679  C00001178  1
    X00000679  C00001179  -1
    X00000679  C00001229  1
    X00000679  C00001428  1
    X00000680  C00001185  1
    X00000680  C00001186  -1
    X00000680  C00001230  1
    X00000680  C00001428  1
    X00000681  C00000003  1
    X00000681  C00001231  -1
    X00000681  C00001429  -1
    X00000682  C00000010  1
    X00000682  C00001232  -1
    X00000682  C00001429  1
    X00000683  C00000017  1
    X00000683  C00001233  -1
    X00000683  C00001429  1
    X00000684  C00000024  1
    X00000684  C00001234  -1
    X00000684  C00001429  1
    X00000685  C00000031  1
    X00000685  C00001235  -1
    X00000685  C00001429  1
    X00000686  C00000038  1
    X00000686  C00001236  -1
    X00000686  C00001429  1
    X00000687  C00000045  1
    X00000687  C00001237  -1
    X00000687  C00001429  1
    X00000688  C00000052  1
    X00000688  C00001238  -1
    X00000688  C00001429  1
    X00000689  C00000059  1
    X00000689  C00001239  -1
    X00000689  C00001429  1
    X00000690  C00000066  1
    X00000690  C00001240  -1
    X00000690  C00001429  1
    X00000691  C00000073  1
    X00000691  C00001231  1
    X00000691  C00001430  -1
    X00000692  C00000080  1
    X00000692  C00001232  1
    X00000692  C00001430  1
    X00000693  C00000087  1
    X00000693  C00001233  1
    X00000693  C00001430  1
    X00000694  C00000094  1
    X00000694  C00001234  1
    X00000694  C00001430  1
    X00000695  C00000101  1
    X00000695  C00001235  1
    X00000695  C00001430  1
    X00000696  C00000108  1
    X00000696  C00001236  1
    X00000696  C00001430  1
    X00000697  C00000115  1
    X00000697  C00001237  1
    X00000697  C00001430  1
    X00000698  C00000122  1
    X00000698  C00001238  1
    X00000698  C00001430  1
    X00000699  C00000129  1
    X00000699  C00001239  1
    X00000699  C00001430  1
    X00000700  C00000136  1
    X00000700  C00001240  1
    X00000700  C00001430  1
    X00000701  C00000143  1
    X00000701  C00001231  1
    X00000701  C00001431  -1
    X00000702  C00000150  1
    X00000702  C00001232  1
    X00000702  C00001431  1
    X00000703  C00000157  1
    X00000703  C00001233  1
    X00000703  C00001431  1
    X00000704  C00000164  1
    X00000704  C00001234  1
    X00000704  C00001431  1
    X00000705  C00000171  1
    X00000705  C00001235  1
    X00000705  C00001431  1
    X00000706  C00000178  1
    X00000706  C00001236  1
    X00000706  C00001431  1
    X00000707  C00000185  1
    X00000707  C00001237  1
    X00000707  C00001431  1
    X00000708  C00000192  1
    X00000708  C00001238  1
    X00000708  C00001431  1
    X00000709  C00000199  1
    X00000709  C00001239  1
    X00000709  C00001431  1
    X00000710  C00000206  1
    X00000710  C00001240  1
    X00000710  C00001431  1
    X00000711  C00000213  1
    X00000711  C00001231  1
    X00000711  C00001432  -1
    X00000712  C00000220  1
    X00000712  C00001232  1
    X00000712  C00001432  1
    X00000713  C00000227  1
    X00000713  C00001233  1
    X00000713  C00001432  1
    X00000714  C00000234  1
    X00000714  C00001234  1
    X00000714  C00001432  1
    X00000715  C00000241  1
    X00000715  C00001235  1
    X00000715  C00001432  1
    X00000716  C00000248  1
    X00000716  C00001236  1
    X00000716  C00001432  1
    X00000717  C00000255  1
    X00000717  C00001237  1
    X00000717  C00001432  1
    X00000718  C00000262  1
    X00000718  C00001238  1
    X00000718  C00001432  1
    X00000719  C00000269  1
    X00000719  C00001239  1
    X00000719  C00001432  1
    X00000720  C00000276  1
    X00000720  C00001240  1
    X00000720  C00001432  1
    X00000721  C00000283  1
    X00000721  C00001231  1
    X00000721  C00001433  -1
    X00000722  C00000290  1
    X00000722  C00001232  1
    X00000722  C00001433  1
    X00000723  C00000297  1
    X00000723  C00001233  1
    X00000723  C00001433  1
    X00000724  C00000304  1
    X00000724  C00001234  1
    X00000724  C00001433  1
    X00000725  C00000311  1
    X00000725  C00001235  1
    X00000725  C00001433  1
    X00000726  C00000318  1
    X00000726  C00001236  1
    X00000726  C00001433  1
    X00000727  C00000325  1
    X00000727  C00001237  1
    X00000727  C00001433  1
    X00000728  C00000332  1
    X00000728  C00001238  1
    X00000728  C00001433  1
    X00000729  C00000339  1
    X00000729  C00001239  1
    X00000729  C00001433  1
    X00000730  C00000346  1
    X00000730  C00001240  1
    X00000730  C00001433  1
    X00000731  C00000353  1
    X00000731  C00001231  1
    X00000731  C00001434  -1
    X00000732  C00000360  1
    X00000732  C00001232  1
    X00000732  C00001434  1
    X00000733  C00000367  1
    X00000733  C00001233  1
    X00000733  C00001434  1
    X00000734  C00000374  1
    X00000734  C00001234  1
    X00000734  C00001434  1
    X00000735  C00000381  1
    X00000735  C00001235  1
    X00000735  C00001434  1
    X00000736  C00000388  1
    X00000736  C00001236  1
    X00000736  C00001434  1
    X00000737  C00000395  1
    X00000737  C00001237  1
    X00000737  C00001434  1
    X00000738  C00000402  1
    X00000738  C00001238  1
    X00000738  C00001434  1
    X00000739  C00000409  1
    X00000739  C00001239  1
    X00000739  C00001434  1
    X00000740  C00000416  1
    X00000740  C00001240  1
    X00000740  C00001434  1
    X00000741  C00000423  1
    X00000741  C00001231  1
    X00000741  C00001435  -1
    X00000742  C00000430  1
    X00000742  C00001232  1
    X00000742  C00001435  1
    X00000743  C00000437  1
    X00000743  C00001233  1
    X00000743  C00001435  1
    X00000744  C00000444  1
    X00000744  C00001234  1
    X00000744  C00001435  1
    X00000745  C00000451  1
    X00000745  C00001235  1
    X00000745  C00001435  1
    X00000746  C00000458  1
    X00000746  C00001236  1
    X00000746  C00001435  1
    X00000747  C00000465  1
    X00000747  C00001237  1
    X00000747  C00001435  1
    X00000748  C00000472  1
    X00000748  C00001238  1
    X00000748  C00001435  1
    X00000749  C00000479  1
    X00000749  C00001239  1
    X00000749  C00001435  1
    X00000750  C00000486  1
    X00000750  C00001240  1
    X00000750  C00001435  1
    X00000751  C00000493  1
    X00000751  C00001231  1
    X00000751  C00001436  -1
    X00000752  C00000500  1
    X00000752  C00001232  1
    X00000752  C00001436  1
    X00000753  C00000507  1
    X00000753  C00001233  1
    X00000753  C00001436  1
    X00000754  C00000514  1
    X00000754  C00001234  1
    X00000754  C00001436  1
    X00000755  C00000521  1
    X00000755  C00001235  1
    X00000755  C00001436  1
    X00000756  C00000528  1
    X00000756  C00001236  1
    X00000756  C00001436  1
    X00000757  C00000535  1
    X00000757  C00001237  1
    X00000757  C00001436  1
    X00000758  C00000542  1
    X00000758  C00001238  1
    X00000758  C00001436  1
    X00000759  C00000549  1
    X00000759  C00001239  1
    X00000759  C00001436  1
    X00000760  C00000556  1
    X00000760  C00001240  1
    X00000760  C00001436  1
    X00000761  C00000563  1
    X00000761  C00001231  1
    X00000761  C00001437  -1
    X00000762  C00000570  1
    X00000762  C00001232  1
    X00000762  C00001437  1
    X00000763  C00000577  1
    X00000763  C00001233  1
    X00000763  C00001437  1
    X00000764  C00000584  1
    X00000764  C00001234  1
    X00000764  C00001437  1
    X00000765  C00000591  1
    X00000765  C00001235  1
    X00000765  C00001437  1
    X00000766  C00000598  1
    X00000766  C00001236  1
    X00000766  C00001437  1
    X00000767  C00000605  1
    X00000767  C00001237  1
    X00000767  C00001437  1
    X00000768  C00000612  1
    X00000768  C00001238  1
    X00000768  C00001437  1
    X00000769  C00000619  1
    X00000769  C00001239  1
    X00000769  C00001437  1
    X00000770  C00000626  1
    X00000770  C00001240  1
    X00000770  C00001437  1
    X00000771  C00000633  1
    X00000771  C00001231  1
    X00000771  C00001438  -1
    X00000772  C00000640  1
    X00000772  C00001232  1
    X00000772  C00001438  1
    X00000773  C00000647  1
    X00000773  C00001233  1
    X00000773  C00001438  1
    X00000774  C00000654  1
    X00000774  C00001234  1
    X00000774  C00001438  1
    X00000775  C00000661  1
    X00000775  C00001235  1
    X00000775  C00001438  1
    X00000776  C00000668  1
    X00000776  C00001236  1
    X00000776  C00001438  1
    X00000777  C00000675  1
    X00000777  C00001237  1
    X00000777  C00001438  1
    X00000778  C00000682  1
    X00000778  C00001238  1
    X00000778  C00001438  1
    X00000779  C00000689  1
    X00000779  C00001239  1
    X00000779  C00001438  1
    X00000780  C00000696  1
    X00000780  C00001240  1
    X00000780  C00001438  1
    X00000781  C00000703  1
    X00000781  C00001231  1
    X00000781  C00001439  -1
    X00000782  C00000710  1
    X00000782  C00001232  1
    X00000782  C00001439  1
    X00000783  C00000717  1
    X00000783  C00001233  1
    X00000783  C00001439  1
    X00000784  C00000724  1
    X00000784  C00001234  1
    X00000784  C00001439  1
    X00000785  C00000731  1
    X00000785  C00001235  1
    X00000785  C00001439  1
    X00000786  C00000738  1
    X00000786  C00001236  1
    X00000786  C00001439  1
    X00000787  C00000745  1
    X00000787  C00001237  1
    X00000787  C00001439  1
    X00000788  C00000752  1
    X00000788  C00001238  1
    X00000788  C00001439  1
    X00000789  C00000759  1
    X00000789  C00001239  1
    X00000789  C00001439  1
    X00000790  C00000766  1
    X00000790  C00001240  1
    X00000790  C00001439  1
    X00000791  C00000773  1
    X00000791  C00001231  1
    X00000791  C00001440  -1
    X00000792  C00000780  1
    X00000792  C00001232  1
    X00000792  C00001440  1
    X00000793  C00000787  1
    X00000793  C00001233  1
    X00000793  C00001440  1
    X00000794  C00000794  1
    X00000794  C00001234  1
    X00000794  C00001440  1
    X00000795  C00000801  1
    X00000795  C00001235  1
    X00000795  C00001440  1
    X00000796  C00000808  1
    X00000796  C00001236  1
    X00000796  C00001440  1
    X00000797  C00000815  1
    X00000797  C00001237  1
    X00000797  C00001440  1
    X00000798  C00000822  1
    X00000798  C00001238  1
    X00000798  C00001440  1
    X00000799  C00000829  1
    X00000799  C00001239  1
    X00000799  C00001440  1
    X00000800  C00000836  1
    X00000800  C00001240  1
    X00000800  C00001440  1
    X00000801  C00000843  1
    X00000801  C00001231  1
    X00000801  C00001441  -1
    X00000802  C00000850  1
    X00000802  C00001232  1
    X00000802  C00001441  1
    X00000803  C00000857  1
    X00000803  C00001233  1
    X00000803  C00001441  1
    X00000804  C00000864  1
    X00000804  C00001234  1
    X00000804  C00001441  1
    X00000805  C00000871  1
    X00000805  C00001235  1
    X00000805  C00001441  1
    X00000806  C00000878  1
    X00000806  C00001236  1
    X00000806  C00001441  1
    X00000807  C00000885  1
    X00000807  C00001237  1
    X00000807  C00001441  1
    X00000808  C00000892  1
    X00000808  C00001238  1
    X00000808  C00001441  1
    X00000809  C00000899  1
    X00000809  C00001239  1
    X00000809  C00001441  1
    X00000810  C00000906  1
    X00000810  C00001240  1
    X00000810  C00001441  1
    X00000811  C00000913  1
    X00000811  C00001231  1
    X00000811  C00001442  -1
    X00000812  C00000920  1
    X00000812  C00001232  1
    X00000812  C00001442  1
    X00000813  C00000927  1
    X00000813  C00001233  1
    X00000813  C00001442  1
    X00000814  C00000934  1
    X00000814  C00001234  1
    X00000814  C00001442  1
    X00000815  C00000941  1
    X00000815  C00001235  1
    X00000815  C00001442  1
    X00000816  C00000948  1
    X00000816  C00001236  1
    X00000816  C00001442  1
    X00000817  C00000955  1
    X00000817  C00001237  1
    X00000817  C00001442  1
    X00000818  C00000962  1
    X00000818  C00001238  1
    X00000818  C00001442  1
    X00000819  C00000969  1
    X00000819  C00001239  1
    X00000819  C00001442  1
    X00000820  C00000976  1
    X00000820  C00001240  1
    X00000820  C00001442  1
    X00000821  C00000983  1
    X00000821  C00001231  1
    X00000821  C00001443  -1
    X00000822  C00000990  1
    X00000822  C00001232  1
    X00000822  C00001443  1
    X00000823  C00000997  1
    X00000823  C00001233  1
    X00000823  C00001443  1
    X00000824  C00001004  1
    X00000824  C00001234  1
    X00000824  C00001443  1
    X00000825  C00001011  1
    X00000825  C00001235  1
    X00000825  C00001443  1
    X00000826  C00001018  1
    X00000826  C00001236  1
    X00000826  C00001443  1
    X00000827  C00001025  1
    X00000827  C00001237  1
    X00000827  C00001443  1
    X00000828  C00001032  1
    X00000828  C00001238  1
    X00000828  C00001443  1
    X00000829  C00001039  1
    X00000829  C00001239  1
    X00000829  C00001443  1
    X00000830  C00001046  1
    X00000830  C00001240  1
    X00000830  C00001443  1
    X00000831  C00001053  1
    X00000831  C00001231  1
    X00000831  C00001444  -1
    X00000832  C00001060  1
    X00000832  C00001232  1
    X00000832  C00001444  1
    X00000833  C00001067  1
    X00000833  C00001233  1
    X00000833  C00001444  1
    X00000834  C00001074  1
    X00000834  C00001234  1
    X00000834  C00001444  1
    X00000835  C00001081  1
    X00000835  C00001235  1
    X00000835  C00001444  1
    X00000836  C00001088  1
    X00000836  C00001236  1
    X00000836  C00001444  1
    X00000837  C00001095  1
    X00000837  C00001237  1
    X00000837  C00001444  1
    X00000838  C00001102  1
    X00000838  C00001238  1
    X00000838  C00001444  1
    X00000839  C00001109  1
    X00000839  C00001239  1
    X00000839  C00001444  1
    X00000840  C00001116  1
    X00000840  C00001240  1
    X00000840  C00001444  1
    X00000841  C00001123  1
    X00000841  C00001231  1
    X00000841  C00001445  -1
    X00000842  C00001130  1
    X00000842  C00001232  1
    X00000842  C00001445  1
    X00000843  C00001137  1
    X00000843  C00001233  1
    X00000843  C00001445  1
    X00000844  C00001144  1
    X00000844  C00001234  1
    X00000844  C00001445  1
    X00000845  C00001151  1
    X00000845  C00001235  1
    X00000845  C00001445  1
    X00000846  C00001158  1
    X00000846  C00001236  1
    X00000846  C00001445  1
    X00000847  C00001165  1
    X00000847  C00001237  1
    X00000847  C00001445  1
    X00000848  C00001172  1
    X00000848  C00001238  1
    X00000848  C00001445  1
    X00000849  C00001179  1
    X00000849  C00001239  1
    X00000849  C00001445  1
    X00000850  C00001186  1
    X00000850  C00001240  1
    X00000850  C00001445  1
    X00000851  C00000003  1
    X00000851  C00001241  -1
    X00000851  C00001446  -1
    X00000852  C00000010  1
    X00000852  C00001242  -1
    X00000852  C00001446  1
    X00000853  C00000017  1
    X00000853  C00001243  -1
    X00000853  C00001446  1
    X00000854  C00000024  1
    X00000854  C00001244  -1
    X00000854  C00001446  1
    X00000855  C00000031  1
    X00000855  C00001245  -1
    X00000855  C00001446  1
    X00000856  C00000038  1
    X00000856  C00001246  -1
    X00000856  C00001446  1
    X00000857  C00000045  1
    X00000857  C00001247  -1
    X00000857  C00001446  1
    X00000858  C00000052  1
    X00000858  C00001248  -1
    X00000858  C00001446  1
    X00000859  C00000059  1
    X00000859  C00001249  -1
    X00000859  C00001446  1
    X00000860  C00000066  1
    X00000860  C00001250  -1
    X00000860  C00001446  1
    X00000861  C00000073  1
    X00000861  C00001241  1
    X00000861  C00001447  -1
    X00000862  C00000080  1
    X00000862  C00001242  1
    X00000862  C00001447  1
    X00000863  C00000087  1
    X00000863  C00001243  1
    X00000863  C00001447  1
    X00000864  C00000094  1
    X00000864  C00001244  1
    X00000864  C00001447  1
    X00000865  C00000101  1
    X00000865  C00001245  1
    X00000865  C00001447  1
    X00000866  C00000108  1
    X00000866  C00001246  1
    X00000866  C00001447  1
    X00000867  C00000115  1
    X00000867  C00001247  1
    X00000867  C00001447  1
    X00000868  C00000122  1
    X00000868  C00001248  1
    X00000868  C00001447  1
    X00000869  C00000129  1
    X00000869  C00001249  1
    X00000869  C00001447  1
    X00000870  C00000136  1
    X00000870  C00001250  1
    X00000870  C00001447  1
    X00000871  C00000143  1
    X00000871  C00001241  1
    X00000871  C00001448  -1
    X00000872  C00000150  1
    X00000872  C00001242  1
    X00000872  C00001448  1
    X00000873  C00000157  1
    X00000873  C00001243  1
    X00000873  C00001448  1
    X00000874  C00000164  1
    X00000874  C00001244  1
    X00000874  C00001448  1
    X00000875  C00000171  1
    X00000875  C00001245  1
    X00000875  C00001448  1
    X00000876  C00000178  1
    X00000876  C00001246  1
    X00000876  C00001448  1
    X00000877  C00000185  1
    X00000877  C00001247  1
    X00000877  C00001448  1
    X00000878  C00000192  1
    X00000878  C00001248  1
    X00000878  C00001448  1
    X00000879  C00000199  1
    X00000879  C00001249  1
    X00000879  C00001448  1
    X00000880  C00000206  1
    X00000880  C00001250  1
    X00000880  C00001448  1
    X00000881  C00000213  1
    X00000881  C00001241  1
    X00000881  C00001449  -1
    X00000882  C00000220  1
    X00000882  C00001242  1
    X00000882  C00001449  1
    X00000883  C00000227  1
    X00000883  C00001243  1
    X00000883  C00001449  1
    X00000884  C00000234  1
    X00000884  C00001244  1
    X00000884  C00001449  1
    X00000885  C00000241  1
    X00000885  C00001245  1
    X00000885  C00001449  1
    X00000886  C00000248  1
    X00000886  C00001246  1
    X00000886  C00001449  1
    X00000887  C00000255  1
    X00000887  C00001247  1
    X00000887  C00001449  1
    X00000888  C00000262  1
    X00000888  C00001248  1
    X00000888  C00001449  1
    X00000889  C00000269  1
    X00000889  C00001249  1
    X00000889  C00001449  1
    X00000890  C00000276  1
    X00000890  C00001250  1
    X00000890  C00001449  1
    X00000891  C00000283  1
    X00000891  C00001241  1
    X00000891  C00001450  -1
    X00000892  C00000290  1
    X00000892  C00001242  1
    X00000892  C00001450  1
    X00000893  C00000297  1
    X00000893  C00001243  1
    X00000893  C00001450  1
    X00000894  C00000304  1
    X00000894  C00001244  1
    X00000894  C00001450  1
    X00000895  C00000311  1
    X00000895  C00001245  1
    X00000895  C00001450  1
    X00000896  C00000318  1
    X00000896  C00001246  1
    X00000896  C00001450  1
    X00000897  C00000325  1
    X00000897  C00001247  1
    X00000897  C00001450  1
    X00000898  C00000332  1
    X00000898  C00001248  1
    X00000898  C00001450  1
    X00000899  C00000339  1
    X00000899  C00001249  1
    X00000899  C00001450  1
    X00000900  C00000346  1
    X00000900  C00001250  1
    X00000900  C00001450  1
    X00000901  C00000353  1
    X00000901  C00001241  1
    X00000901  C00001451  -1
    X00000902  C00000360  1
    X00000902  C00001242  1
    X00000902  C00001451  1
    X00000903  C00000367  1
    X00000903  C00001243  1
    X00000903  C00001451  1
    X00000904  C00000374  1
    X00000904  C00001244  1
    X00000904  C00001451  1
    X00000905  C00000381  1
    X00000905  C00001245  1
    X00000905  C00001451  1
    X00000906  C00000388  1
    X00000906  C00001246  1
    X00000906  C00001451  1
    X00000907  C00000395  1
    X00000907  C00001247  1
    X00000907  C00001451  1
    X00000908  C00000402  1
    X00000908  C00001248  1
    X00000908  C00001451  1
    X00000909  C00000409  1
    X00000909  C00001249  1
    X00000909  C00001451  1
    X00000910  C00000416  1
    X00000910  C00001250  1
    X00000910  C00001451  1
    X00000911  C00000423  1
    X00000911  C00001241  1
    X00000911  C00001452  -1
    X00000912  C00000430  1
    X00000912  C00001242  1
    X00000912  C00001452  1
    X00000913  C00000437  1
    X00000913  C00001243  1
    X00000913  C00001452  1
    X00000914  C00000444  1
    X00000914  C00001244  1
    X00000914  C00001452  1
    X00000915  C00000451  1
    X00000915  C00001245  1
    X00000915  C00001452  1
    X00000916  C00000458  1
    X00000916  C00001246  1
    X00000916  C00001452  1
    X00000917  C00000465  1
    X00000917  C00001247  1
    X00000917  C00001452  1
    X00000918  C00000472  1
    X00000918  C00001248  1
    X00000918  C00001452  1
    X00000919  C00000479  1
    X00000919  C00001249  1
    X00000919  C00001452  1
    X00000920  C00000486  1
    X00000920  C00001250  1
    X00000920  C00001452  1
    X00000921  C00000493  1
    X00000921  C00001241  1
    X00000921  C00001453  -1
    X00000922  C00000500  1
    X00000922  C00001242  1
    X00000922  C00001453  1
    X00000923  C00000507  1
    X00000923  C00001243  1
    X00000923  C00001453  1
    X00000924  C00000514  1
    X00000924  C00001244  1
    X00000924  C00001453  1
    X00000925  C00000521  1
    X00000925  C00001245  1
    X00000925  C00001453  1
    X00000926  C00000528  1
    X00000926  C00001246  1
    X00000926  C00001453  1
    X00000927  C00000535  1
    X00000927  C00001247  1
    X00000927  C00001453  1
    X00000928  C00000542  1
    X00000928  C00001248  1
    X00000928  C00001453  1
    X00000929  C00000549  1
    X00000929  C00001249  1
    X00000929  C00001453  1
    X00000930  C00000556  1
    X00000930  C00001250  1
    X00000930  C00001453  1
    X00000931  C00000563  1
    X00000931  C00001241  1
    X00000931  C00001454  -1
    X00000932  C00000570  1
    X00000932  C00001242  1
    X00000932  C00001454  1
    X00000933  C00000577  1
    X00000933  C00001243  1
    X00000933  C00001454  1
    X00000934  C00000584  1
    X00000934  C00001244  1
    X00000934  C00001454  1
    X00000935  C00000591  1
    X00000935  C00001245  1
    X00000935  C00001454  1
    X00000936  C00000598  1
    X00000936  C00001246  1
    X00000936  C00001454  1
    X00000937  C00000605  1
    X00000937  C00001247  1
    X00000937  C00001454  1
    X00000938  C00000612  1
    X00000938  C00001248  1
    X00000938  C00001454  1
    X00000939  C00000619  1
    X00000939  C00001249  1
    X00000939  C00001454  1
    X00000940  C00000626  1
    X00000940  C00001250  1
    X00000940  C00001454  1
    X00000941  C00000633  1
    X00000941  C00001241  1
    X00000941  C00001455  -1
    X00000942  C00000640  1
    X00000942  C00001242  1
    X00000942  C00001455  1
    X00000943  C00000647  1
    X00000943  C00001243  1
    X00000943  C00001455  1
    X00000944  C00000654  1
    X00000944  C00001244  1
    X00000944  C00001455  1
    X00000945  C00000661  1
    X00000945  C00001245  1
    X00000945  C00001455  1
    X00000946  C00000668  1
    X00000946  C00001246  1
    X00000946  C00001455  1
    X00000947  C00000675  1
    X00000947  C00001247  1
    X00000947  C00001455  1
    X00000948  C00000682  1
    X00000948  C00001248  1
    X00000948  C00001455  1
    X00000949  C00000689  1
    X00000949  C00001249  1
    X00000949  C00001455  1
    X00000950  C00000696  1
    X00000950  C00001250  1
    X00000950  C00001455  1
    X00000951  C00000703  1
    X00000951  C00001241  1
    X00000951  C00001456  -1
    X00000952  C00000710  1
    X00000952  C00001242  1
    X00000952  C00001456  1
    X00000953  C00000717  1
    X00000953  C00001243  1
    X00000953  C00001456  1
    X00000954  C00000724  1
    X00000954  C00001244  1
    X00000954  C00001456  1
    X00000955  C00000731  1
    X00000955  C00001245  1
    X00000955  C00001456  1
    X00000956  C00000738  1
    X00000956  C00001246  1
    X00000956  C00001456  1
    X00000957  C00000745  1
    X00000957  C00001247  1
    X00000957  C00001456  1
    X00000958  C00000752  1
    X00000958  C00001248  1
    X00000958  C00001456  1
    X00000959  C00000759  1
    X00000959  C00001249  1
    X00000959  C00001456  1
    X00000960  C00000766  1
    X00000960  C00001250  1
    X00000960  C00001456  1
    X00000961  C00000773  1
    X00000961  C00001241  1
    X00000961  C00001457  -1
    X00000962  C00000780  1
    X00000962  C00001242  1
    X00000962  C00001457  1
    X00000963  C00000787  1
    X00000963  C00001243  1
    X00000963  C00001457  1
    X00000964  C00000794  1
    X00000964  C00001244  1
    X00000964  C00001457  1
    X00000965  C00000801  1
    X00000965  C00001245  1
    X00000965  C00001457  1
    X00000966  C00000808  1
    X00000966  C00001246  1
    X00000966  C00001457  1
    X00000967  C00000815  1
    X00000967  C00001247  1
    X00000967  C00001457  1
    X00000968  C00000822  1
    X00000968  C00001248  1
    X00000968  C00001457  1
    X00000969  C00000829  1
    X00000969  C00001249  1
    X00000969  C00001457  1
    X00000970  C00000836  1
    X00000970  C00001250  1
    X00000970  C00001457  1
    X00000971  C00000843  1
    X00000971  C00001241  1
    X00000971  C00001458  -1
    X00000972  C00000850  1
    X00000972  C00001242  1
    X00000972  C00001458  1
    X00000973  C00000857  1
    X00000973  C00001243  1
    X00000973  C00001458  1
    X00000974  C00000864  1
    X00000974  C00001244  1
    X00000974  C00001458  1
    X00000975  C00000871  1
    X00000975  C00001245  1
    X00000975  C00001458  1
    X00000976  C00000878  1
    X00000976  C00001246  1
    X00000976  C00001458  1
    X00000977  C00000885  1
    X00000977  C00001247  1
    X00000977  C00001458  1
    X00000978  C00000892  1
    X00000978  C00001248  1
    X00000978  C00001458  1
    X00000979  C00000899  1
    X00000979  C00001249  1
    X00000979  C00001458  1
    X00000980  C00000906  1
    X00000980  C00001250  1
    X00000980  C00001458  1
    X00000981  C00000913  1
    X00000981  C00001241  1
    X00000981  C00001459  -1
    X00000982  C00000920  1
    X00000982  C00001242  1
    X00000982  C00001459  1
    X00000983  C00000927  1
    X00000983  C00001243  1
    X00000983  C00001459  1
    X00000984  C00000934  1
    X00000984  C00001244  1
    X00000984  C00001459  1
    X00000985  C00000941  1
    X00000985  C00001245  1
    X00000985  C00001459  1
    X00000986  C00000948  1
    X00000986  C00001246  1
    X00000986  C00001459  1
    X00000987  C00000955  1
    X00000987  C00001247  1
    X00000987  C00001459  1
    X00000988  C00000962  1
    X00000988  C00001248  1
    X00000988  C00001459  1
    X00000989  C00000969  1
    X00000989  C00001249  1
    X00000989  C00001459  1
    X00000990  C00000976  1
    X00000990  C00001250  1
    X00000990  C00001459  1
    X00000991  C00000983  1
    X00000991  C00001241  1
    X00000991  C00001460  -1
    X00000992  C00000990  1
    X00000992  C00001242  1
    X00000992  C00001460  1
    X00000993  C00000997  1
    X00000993  C00001243  1
    X00000993  C00001460  1
    X00000994  C00001004  1
    X00000994  C00001244  1
    X00000994  C00001460  1
    X00000995  C00001011  1
    X00000995  C00001245  1
    X00000995  C00001460  1
    X00000996  C00001018  1
    X00000996  C00001246  1
    X00000996  C00001460  1
    X00000997  C00001025  1
    X00000997  C00001247  1
    X00000997  C00001460  1
    X00000998  C00001032  1
    X00000998  C00001248  1
    X00000998  C00001460  1
    X00000999  C00001039  1
    X00000999  C00001249  1
    X00000999  C00001460  1
    X00001000  C00001046  1
    X00001000  C00001250  1
    X00001000  C00001460  1
    X00001001  C00001053  1
    X00001001  C00001241  1
    X00001001  C00001461  -1
    X00001002  C00001060  1
    X00001002  C00001242  1
    X00001002  C00001461  1
    X00001003  C00001067  1
    X00001003  C00001243  1
    X00001003  C00001461  1
    X00001004  C00001074  1
    X00001004  C00001244  1
    X00001004  C00001461  1
    X00001005  C00001081  1
    X00001005  C00001245  1
    X00001005  C00001461  1
    X00001006  C00001088  1
    X00001006  C00001246  1
    X00001006  C00001461  1
    X00001007  C00001095  1
    X00001007  C00001247  1
    X00001007  C00001461  1
    X00001008  C00001102  1
    X00001008  C00001248  1
    X00001008  C00001461  1
    X00001009  C00001109  1
    X00001009  C00001249  1
    X00001009  C00001461  1
    X00001010  C00001116  1
    X00001010  C00001250  1
    X00001010  C00001461  1
    X00001011  C00001123  1
    X00001011  C00001241  1
    X00001011  C00001462  -1
    X00001012  C00001130  1
    X00001012  C00001242  1
    X00001012  C00001462  1
    X00001013  C00001137  1
    X00001013  C00001243  1
    X00001013  C00001462  1
    X00001014  C00001144  1
    X00001014  C00001244  1
    X00001014  C00001462  1
    X00001015  C00001151  1
    X00001015  C00001245  1
    X00001015  C00001462  1
    X00001016  C00001158  1
    X00001016  C00001246  1
    X00001016  C00001462  1
    X00001017  C00001165  1
    X00001017  C00001247  1
    X00001017  C00001462  1
    X00001018  C00001172  1
    X00001018  C00001248  1
    X00001018  C00001462  1
    X00001019  C00001179  1
    X00001019  C00001249  1
    X00001019  C00001462  1
    X00001020  C00001186  1
    X00001020  C00001250  1
    X00001020  C00001462  1
    X00001021  C00000001  1
    X00001021  C00000004  -1
    X00001021  C00001251  -1
    X00001021  C00001463  -1
    X00001022  C00000008  1
    X00001022  C00000011  -1
    X00001022  C00001252  -1
    X00001022  C00001463  1
    X00001023  C00000015  1
    X00001023  C00000018  -1
    X00001023  C00001253  -1
    X00001023  C00001463  1
    X00001024  C00000022  1
    X00001024  C00000025  -1
    X00001024  C00001254  -1
    X00001024  C00001463  1
    X00001025  C00000029  1
    X00001025  C00000032  -1
    X00001025  C00001255  -1
    X00001025  C00001463  1
    X00001026  C00000036  1
    X00001026  C00000039  -1
    X00001026  C00001256  -1
    X00001026  C00001463  1
    X00001027  C00000043  1
    X00001027  C00000046  -1
    X00001027  C00001257  -1
    X00001027  C00001463  1
    X00001028  C00000050  1
    X00001028  C00000053  -1
    X00001028  C00001258  -1
    X00001028  C00001463  1
    X00001029  C00000057  1
    X00001029  C00000060  -1
    X00001029  C00001259  -1
    X00001029  C00001463  1
    X00001030  C00000064  1
    X00001030  C00000067  -1
    X00001030  C00001260  -1
    X00001030  C00001463  1
    X00001031  C00000071  1
    X00001031  C00000074  -1
    X00001031  C00001251  1
    X00001031  C00001464  -1
    X00001032  C00000078  1
    X00001032  C00000081  -1
    X00001032  C00001252  1
    X00001032  C00001464  1
    X00001033  C00000085  1
    X00001033  C00000088  -1
    X00001033  C00001253  1
    X00001033  C00001464  1
    X00001034  C00000092  1
    X00001034  C00000095  -1
    X00001034  C00001254  1
    X00001034  C00001464  1
    X00001035  C00000099  1
    X00001035  C00000102  -1
    X00001035  C00001255  1
    X00001035  C00001464  1
    X00001036  C00000106  1
    X00001036  C00000109  -1
    X00001036  C00001256  1
    X00001036  C00001464  1
    X00001037  C00000113  1
    X00001037  C00000116  -1
    X00001037  C00001257  1
    X00001037  C00001464  1
    X00001038  C00000120  1
    X00001038  C00000123  -1
    X00001038  C00001258  1
    X00001038  C00001464  1
    X00001039  C00000127  1
    X00001039  C00000130  -1
    X00001039  C00001259  1
    X00001039  C00001464  1
    X00001040  C00000134  1
    X00001040  C00000137  -1
    X00001040  C00001260  1
    X00001040  C00001464  1
    X00001041  C00000141  1
    X00001041  C00000144  -1
    X00001041  C00001251  1
    X00001041  C00001465  -1
    X00001042  C00000148  1
    X00001042  C00000151  -1
    X00001042  C00001252  1
    X00001042  C00001465  1
    X00001043  C00000155  1
    X00001043  C00000158  -1
    X00001043  C00001253  1
    X00001043  C00001465  1
    X00001044  C00000162  1
    X00001044  C00000165  -1
    X00001044  C00001254  1
    X00001044  C00001465  1
    X00001045  C00000169  1
    X00001045  C00000172  -1
    X00001045  C00001255  1
    X00001045  C00001465  1
    X00001046  C00000176  1
    X00001046  C00000179  -1
    X00001046  C00001256  1
    X00001046  C00001465  1
    X00001047  C00000183  1
    X00001047  C00000186  -1
    X00001047  C00001257  1
    X00001047  C00001465  1
    X00001048  C00000190  1
    X00001048  C00000193  -1
    X00001048  C00001258  1
    X00001048  C00001465  1
    X00001049  C00000197  1
    X00001049  C00000200  -1
    X00001049  C00001259  1
    X00001049  C00001465  1
    X00001050  C00000204  1
    X00001050  C00000207  -1
    X00001050  C00001260  1
    X00001050  C00001465  1
    X00001051  C00000211  1
    X00001051  C00000214  -1
    X00001051  C00001251  1
    X00001051  C00001466  -1
    X00001052  C00000218  1
    X00001052  C00000221  -1
    X00001052  C00001252  1
    X00001052  C00001466  1
    X00001053  C00000225  1
    X00001053  C00000228  -1
    X00001053  C00001253  1
    X00001053  C00001466  1
    X00001054  C00000232  1
    X00001054  C00000235  -1
    X00001054  C00001254  1
    X00001054  C00001466  1
    X00001055  C00000239  1
    X00001055  C00000242  -1
    X00001055  C00001255  1
    X00001055  C00001466  1
    X00001056  C00000246  1
    X00001056  C00000249  -1
    X00001056  C00001256  1
    X00001056  C00001466  1
    X00001057  C00000253  1
    X00001057  C00000256  -1
    X00001057  C00001257  1
    X00001057  C00001466  1
    X00001058  C00000260  1
    X00001058  C00000263  -1
    X00001058  C00001258  1
    X00001058  C00001466  1
    X00001059  C00000267  1
    X00001059  C00000270  -1
    X00001059  C00001259  1
    X00001059  C00001466  1
    X00001060  C00000274  1
    X00001060  C00000277  -1
    X00001060  C00001260  1
    X00001060  C00001466  1
    X00001061  C00000281  1
    X00001061  C00000284  -1
    X00001061  C00001251  1
    X00001061  C00001467  -1
    X00001062  C00000288  1
    X00001062  C00000291  -1
    X00001062  C00001252  1
    X00001062  C00001467  1
    X00001063  C00000295  1
    X00001063  C00000298  -1
    X00001063  C00001253  1
    X00001063  C00001467  1
    X00001064  C00000302  1
    X00001064  C00000305  -1
    X00001064  C00001254  1
    X00001064  C00001467  1
    X00001065  C00000309  1
    X00001065  C00000312  -1
    X00001065  C00001255  1
    X00001065  C00001467  1
    X00001066  C00000316  1
    X00001066  C00000319  -1
    X00001066  C00001256  1
    X00001066  C00001467  1
    X00001067  C00000323  1
    X00001067  C00000326  -1
    X00001067  C00001257  1
    X00001067  C00001467  1
    X00001068  C00000330  1
    X00001068  C00000333  -1
    X00001068  C00001258  1
    X00001068  C00001467  1
    X00001069  C00000337  1
    X00001069  C00000340  -1
    X00001069  C00001259  1
    X00001069  C00001467  1
    X00001070  C00000344  1
    X00001070  C00000347  -1
    X00001070  C00001260  1
    X00001070  C00001467  1
    X00001071  C00000351  1
    X00001071  C00000354  -1
    X00001071  C00001251  1
    X00001071  C00001468  -1
    X00001072  C00000358  1
    X00001072  C00000361  -1
    X00001072  C00001252  1
    X00001072  C00001468  1
    X00001073  C00000365  1
    X00001073  C00000368  -1
    X00001073  C00001253  1
    X00001073  C00001468  1
    X00001074  C00000372  1
    X00001074  C00000375  -1
    X00001074  C00001254  1
    X00001074  C00001468  1
    X00001075  C00000379  1
    X00001075  C00000382  -1
    X00001075  C00001255  1
    X00001075  C00001468  1
    X00001076  C00000386  1
    X00001076  C00000389  -1
    X00001076  C00001256  1
    X00001076  C00001468  1
    X00001077  C00000393  1
    X00001077  C00000396  -1
    X00001077  C00001257  1
    X00001077  C00001468  1
    X00001078  C00000400  1
    X00001078  C00000403  -1
    X00001078  C00001258  1
    X00001078  C00001468  1
    X00001079  C00000407  1
    X00001079  C00000410  -1
    X00001079  C00001259  1
    X00001079  C00001468  1
    X00001080  C00000414  1
    X00001080  C00000417  -1
    X00001080  C00001260  1
    X00001080  C00001468  1
    X00001081  C00000421  1
    X00001081  C00000424  -1
    X00001081  C00001251  1
    X00001081  C00001469  -1
    X00001082  C00000428  1
    X00001082  C00000431  -1
    X00001082  C00001252  1
    X00001082  C00001469  1
    X00001083  C00000435  1
    X00001083  C00000438  -1
    X00001083  C00001253  1
    X00001083  C00001469  1
    X00001084  C00000442  1
    X00001084  C00000445  -1
    X00001084  C00001254  1
    X00001084  C00001469  1
    X00001085  C00000449  1
    X00001085  C00000452  -1
    X00001085  C00001255  1
    X00001085  C00001469  1
    X00001086  C00000456  1
    X00001086  C00000459  -1
    X00001086  C00001256  1
    X00001086  C00001469  1
    X00001087  C00000463  1
    X00001087  C00000466  -1
    X00001087  C00001257  1
    X00001087  C00001469  1
    X00001088  C00000470  1
    X00001088  C00000473  -1
    X00001088  C00001258  1
    X00001088  C00001469  1
    X00001089  C00000477  1
    X00001089  C00000480  -1
    X00001089  C00001259  1
    X00001089  C00001469  1
    X00001090  C00000484  1
    X00001090  C00000487  -1
    X00001090  C00001260  1
    X00001090  C00001469  1
    X00001091  C00000491  1
    X00001091  C00000494  -1
    X00001091  C00001251  1
    X00001091  C00001470  -1
    X00001092  C00000498  1
    X00001092  C00000501  -1
    X00001092  C00001252  1
    X00001092  C00001470  1
    X00001093  C00000505  1
    X00001093  C00000508  -1
    X00001093  C00001253  1
    X00001093  C00001470  1
    X00001094  C00000512  1
    X00001094  C00000515  -1
    X00001094  C00001254  1
    X00001094  C00001470  1
    X00001095  C00000519  1
    X00001095  C00000522  -1
    X00001095  C00001255  1
    X00001095  C00001470  1
    X00001096  C00000526  1
    X00001096  C00000529  -1
    X00001096  C00001256  1
    X00001096  C00001470  1
    X00001097  C00000533  1
    X00001097  C00000536  -1
    X00001097  C00001257  1
    X00001097  C00001470  1
    X00001098  C00000540  1
    X00001098  C00000543  -1
    X00001098  C00001258  1
    X00001098  C00001470  1
    X00001099  C00000547  1
    X00001099  C00000550  -1
    X00001099  C00001259  1
    X00001099  C00001470  1
    X00001100  C00000554  1
    X00001100  C00000557  -1
    X00001100  C00001260  1
    X00001100  C00001470  1
    X00001101  C00000561  1
    X00001101  C00000564  -1
    X00001101  C00001251  1
    X00001101  C00001471  -1
    X00001102  C00000568  1
    X00001102  C00000571  -1
    X00001102  C00001252  1
    X00001102  C00001471  1
    X00001103  C00000575  1
    X00001103  C00000578  -1
    X00001103  C00001253  1
    X00001103  C00001471  1
    X00001104  C00000582  1
    X00001104  C00000585  -1
    X00001104  C00001254  1
    X00001104  C00001471  1
    X00001105  C00000589  1
    X00001105  C00000592  -1
    X00001105  C00001255  1
    X00001105  C00001471  1
    X00001106  C00000596  1
    X00001106  C00000599  -1
    X00001106  C00001256  1
    X00001106  C00001471  1
    X00001107  C00000603  1
    X00001107  C00000606  -1
    X00001107  C00001257  1
    X00001107  C00001471  1
    X00001108  C00000610  1
    X00001108  C00000613  -1
    X00001108  C00001258  1
    X00001108  C00001471  1
    X00001109  C00000617  1
    X00001109  C00000620  -1
    X00001109  C00001259  1
    X00001109  C00001471  1
    X00001110  C00000624  1
    X00001110  C00000627  -1
    X00001110  C00001260  1
    X00001110  C00001471  1
    X00001111  C00000631  1
    X00001111  C00000634  -1
    X00001111  C00001251  1
    X00001111  C00001472  -1
    X00001112  C00000638  1
    X00001112  C00000641  -1
    X00001112  C00001252  1
    X00001112  C00001472  1
    X00001113  C00000645  1
    X00001113  C00000648  -1
    X00001113  C00001253  1
    X00001113  C00001472  1
    X00001114  C00000652  1
    X00001114  C00000655  -1
    X00001114  C00001254  1
    X00001114  C00001472  1
    X00001115  C00000659  1
    X00001115  C00000662  -1
    X00001115  C00001255  1
    X00001115  C00001472  1
    X00001116  C00000666  1
    X00001116  C00000669  -1
    X00001116  C00001256  1
    X00001116  C00001472  1
    X00001117  C00000673  1
    X00001117  C00000676  -1
    X00001117  C00001257  1
    X00001117  C00001472  1
    X00001118  C00000680  1
    X00001118  C00000683  -1
    X00001118  C00001258  1
    X00001118  C00001472  1
    X00001119  C00000687  1
    X00001119  C00000690  -1
    X00001119  C00001259  1
    X00001119  C00001472  1
    X00001120  C00000694  1
    X00001120  C00000697  -1
    X00001120  C00001260  1
    X00001120  C00001472  1
    X00001121  C00000701  1
    X00001121  C00000704  -1
    X00001121  C00001251  1
    X00001121  C00001473  -1
    X00001122  C00000708  1
    X00001122  C00000711  -1
    X00001122  C00001252  1
    X00001122  C00001473  1
    X00001123  C00000715  1
    X00001123  C00000718  -1
    X00001123  C00001253  1
    X00001123  C00001473  1
    X00001124  C00000722  1
    X00001124  C00000725  -1
    X00001124  C00001254  1
    X00001124  C00001473  1
    X00001125  C00000729  1
    X00001125  C00000732  -1
    X00001125  C00001255  1
    X00001125  C00001473  1
    X00001126  C00000736  1
    X00001126  C00000739  -1
    X00001126  C00001256  1
    X00001126  C00001473  1
    X00001127  C00000743  1
    X00001127  C00000746  -1
    X00001127  C00001257  1
    X00001127  C00001473  1
    X00001128  C00000750  1
    X00001128  C00000753  -1
    X00001128  C00001258  1
    X00001128  C00001473  1
    X00001129  C00000757  1
    X00001129  C00000760  -1
    X00001129  C00001259  1
    X00001129  C00001473  1
    X00001130  C00000764  1
    X00001130  C00000767  -1
    X00001130  C00001260  1
    X00001130  C00001473  1
    X00001131  C00000771  1
    X00001131  C00000774  -1
    X00001131  C00001251  1
    X00001131  C00001474  -1
    X00001132  C00000778  1
    X00001132  C00000781  -1
    X00001132  C00001252  1
    X00001132  C00001474  1
    X00001133  C00000785  1
    X00001133  C00000788  -1
    X00001133  C00001253  1
    X00001133  C00001474  1
    X00001134  C00000792  1
    X00001134  C00000795  -1
    X00001134  C00001254  1
    X00001134  C00001474  1
    X00001135  C00000799  1
    X00001135  C00000802  -1
    X00001135  C00001255  1
    X00001135  C00001474  1
    X00001136  C00000806  1
    X00001136  C00000809  -1
    X00001136  C00001256  1
    X00001136  C00001474  1
    X00001137  C00000813  1
    X00001137  C00000816  -1
    X00001137  C00001257  1
    X00001137  C00001474  1
    X00001138  C00000820  1
    X00001138  C00000823  -1
    X00001138  C00001258  1
    X00001138  C00001474  1
    X00001139  C00000827  1
    X00001139  C00000830  -1
    X00001139  C00001259  1
    X00001139  C00001474  1
    X00001140  C00000834  1
    X00001140  C00000837  -1
    X00001140  C00001260  1
    X00001140  C00001474  1
    X00001141  C00000841  1
    X00001141  C00000844  -1
    X00001141  C00001251  1
    X00001141  C00001475  -1
    X00001142  C00000848  1
    X00001142  C00000851  -1
    X00001142  C00001252  1
    X00001142  C00001475  1
    X00001143  C00000855  1
    X00001143  C00000858  -1
    X00001143  C00001253  1
    X00001143  C00001475  1
    X00001144  C00000862  1
    X00001144  C00000865  -1
    X00001144  C00001254  1
    X00001144  C00001475  1
    X00001145  C00000869  1
    X00001145  C00000872  -1
    X00001145  C00001255  1
    X00001145  C00001475  1
    X00001146  C00000876  1
    X00001146  C00000879  -1
    X00001146  C00001256  1
    X00001146  C00001475  1
    X00001147  C00000883  1
    X00001147  C00000886  -1
    X00001147  C00001257  1
    X00001147  C00001475  1
    X00001148  C00000890  1
    X00001148  C00000893  -1
    X00001148  C00001258  1
    X00001148  C00001475  1
    X00001149  C00000897  1
    X00001149  C00000900  -1
    X00001149  C00001259  1
    X00001149  C00001475  1
    X00001150  C00000904  1
    X00001150  C00000907  -1
    X00001150  C00001260  1
    X00001150  C00001475  1
    X00001151  C00000911  1
    X00001151  C00000914  -1
    X00001151  C00001251  1
    X00001151  C00001476  -1
    X00001152  C00000918  1
    X00001152  C00000921  -1
    X00001152  C00001252  1
    X00001152  C00001476  1
    X00001153  C00000925  1
    X00001153  C00000928  -1
    X00001153  C00001253  1
    X00001153  C00001476  1
    X00001154  C00000932  1
    X00001154  C00000935  -1
    X00001154  C00001254  1
    X00001154  C00001476  1
    X00001155  C00000939  1
    X00001155  C00000942  -1
    X00001155  C00001255  1
    X00001155  C00001476  1
    X00001156  C00000946  1
    X00001156  C00000949  -1
    X00001156  C00001256  1
    X00001156  C00001476  1
    X00001157  C00000953  1
    X00001157  C00000956  -1
    X00001157  C00001257  1
    X00001157  C00001476  1
    X00001158  C00000960  1
    X00001158  C00000963  -1
    X00001158  C00001258  1
    X00001158  C00001476  1
    X00001159  C00000967  1
    X00001159  C00000970  -1
    X00001159  C00001259  1
    X00001159  C00001476  1
    X00001160  C00000974  1
    X00001160  C00000977  -1
    X00001160  C00001260  1
    X00001160  C00001476  1
    X00001161  C00000981  1
    X00001161  C00000984  -1
    X00001161  C00001251  1
    X00001161  C00001477  -1
    X00001162  C00000988  1
    X00001162  C00000991  -1
    X00001162  C00001252  1
    X00001162  C00001477  1
    X00001163  C00000995  1
    X00001163  C00000998  -1
    X00001163  C00001253  1
    X00001163  C00001477  1
    X00001164  C00001002  1
    X00001164  C00001005  -1
    X00001164  C00001254  1
    X00001164  C00001477  1
    X00001165  C00001009  1
    X00001165  C00001012  -1
    X00001165  C00001255  1
    X00001165  C00001477  1
    X00001166  C00001016  1
    X00001166  C00001019  -1
    X00001166  C00001256  1
    X00001166  C00001477  1
    X00001167  C00001023  1
    X00001167  C00001026  -1
    X00001167  C00001257  1
    X00001167  C00001477  1
    X00001168  C00001030  1
    X00001168  C00001033  -1
    X00001168  C00001258  1
    X00001168  C00001477  1
    X00001169  C00001037  1
    X00001169  C00001040  -1
    X00001169  C00001259  1
    X00001169  C00001477  1
    X00001170  C00001044  1
    X00001170  C00001047  -1
    X00001170  C00001260  1
    X00001170  C00001477  1
    X00001171  C00001051  1
    X00001171  C00001054  -1
    X00001171  C00001251  1
    X00001171  C00001478  -1
    X00001172  C00001058  1
    X00001172  C00001061  -1
    X00001172  C00001252  1
    X00001172  C00001478  1
    X00001173  C00001065  1
    X00001173  C00001068  -1
    X00001173  C00001253  1
    X00001173  C00001478  1
    X00001174  C00001072  1
    X00001174  C00001075  -1
    X00001174  C00001254  1
    X00001174  C00001478  1
    X00001175  C00001079  1
    X00001175  C00001082  -1
    X00001175  C00001255  1
    X00001175  C00001478  1
    X00001176  C00001086  1
    X00001176  C00001089  -1
    X00001176  C00001256  1
    X00001176  C00001478  1
    X00001177  C00001093  1
    X00001177  C00001096  -1
    X00001177  C00001257  1
    X00001177  C00001478  1
    X00001178  C00001100  1
    X00001178  C00001103  -1
    X00001178  C00001258  1
    X00001178  C00001478  1
    X00001179  C00001107  1
    X00001179  C00001110  -1
    X00001179  C00001259  1
    X00001179  C00001478  1
    X00001180  C00001114  1
    X00001180  C00001117  -1
    X00001180  C00001260  1
    X00001180  C00001478  1
    X00001181  C00001121  1
    X00001181  C00001124  -1
    X00001181  C00001251  1
    X00001181  C00001479  -1
    X00001182  C00001128  1
    X00001182  C00001131  -1
    X00001182  C00001252  1
    X00001182  C00001479  1
    X00001183  C00001135  1
    X00001183  C00001138  -1
    X00001183  C00001253  1
    X00001183  C00001479  1
    X00001184  C00001142  1
    X00001184  C00001145  -1
    X00001184  C00001254  1
    X00001184  C00001479  1
    X00001185  C00001149  1
    X00001185  C00001152  -1
    X00001185  C00001255  1
    X00001185  C00001479  1
    X00001186  C00001156  1
    X00001186  C00001159  -1
    X00001186  C00001256  1
    X00001186  C00001479  1
    X00001187  C00001163  1
    X00001187  C00001166  -1
    X00001187  C00001257  1
    X00001187  C00001479  1
    X00001188  C00001170  1
    X00001188  C00001173  -1
    X00001188  C00001258  1
    X00001188  C00001479  1
    X00001189  C00001177  1
    X00001189  C00001180  -1
    X00001189  C00001259  1
    X00001189  C00001479  1
    X00001190  C00001184  1
    X00001190  C00001187  -1
    X00001190  C00001260  1
    X00001190  C00001479  1
    X00001191  C00000004  1
    X00001191  C00000005  -1
    X00001191  C00001261  -1
    X00001191  C00001480  -1
    X00001192  C00000011  1
    X00001192  C00000012  -1
    X00001192  C00001262  -1
    X00001192  C00001480  1
    X00001193  C00000018  1
    X00001193  C00000019  -1
    X00001193  C00001263  -1
    X00001193  C00001480  1
    X00001194  C00000025  1
    X00001194  C00000026  -1
    X00001194  C00001264  -1
    X00001194  C00001480  1
    X00001195  C00000032  1
    X00001195  C00000033  -1
    X00001195  C00001265  -1
    X00001195  C00001480  1
    X00001196  C00000039  1
    X00001196  C00000040  -1
    X00001196  C00001266  -1
    X00001196  C00001480  1
    X00001197  C00000046  1
    X00001197  C00000047  -1
    X00001197  C00001267  -1
    X00001197  C00001480  1
    X00001198  C00000053  1
    X00001198  C00000054  -1
    X00001198  C00001268  -1
    X00001198  C00001480  1
    X00001199  C00000060  1
    X00001199  C00000061  -1
    X00001199  C00001269  -1
    X00001199  C00001480  1
    X00001200  C00000067  1
    X00001200  C00000068  -1
    X00001200  C00001270  -1
    X00001200  C00001480  1
    X00001201  C00000074  1
    X00001201  C00000075  -1
    X00001201  C00001261  1
    X00001201  C00001481  -1
    X00001202  C00000081  1
    X00001202  C00000082  -1
    X00001202  C00001262  1
    X00001202  C00001481  1
    X00001203  C00000088  1
    X00001203  C00000089  -1
    X00001203  C00001263  1
    X00001203  C00001481  1
    X00001204  C00000095  1
    X00001204  C00000096  -1
    X00001204  C00001264  1
    X00001204  C00001481  1
    X00001205  C00000102  1
    X00001205  C00000103  -1
    X00001205  C00001265  1
    X00001205  C00001481  1
    X00001206  C00000109  1
    X00001206  C00000110  -1
    X00001206  C00001266  1
    X00001206  C00001481  1
    X00001207  C00000116  1
    X00001207  C00000117  -1
    X00001207  C00001267  1
    X00001207  C00001481  1
    X00001208  C00000123  1
    X00001208  C00000124  -1
    X00001208  C00001268  1
    X00001208  C00001481  1
    X00001209  C00000130  1
    X00001209  C00000131  -1
    X00001209  C00001269  1
    X00001209  C00001481  1
    X00001210  C00000137  1
    X00001210  C00000138  -1
    X00001210  C00001270  1
    X00001210  C00001481  1
    X00001211  C00000144  1
    X00001211  C00000145  -1
    X00001211  C00001261  1
    X00001211  C00001482  -1
    X00001212  C00000151  1
    X00001212  C00000152  -1
    X00001212  C00001262  1
    X00001212  C00001482  1
    X00001213  C00000158  1
    X00001213  C00000159  -1
    X00001213  C00001263  1
    X00001213  C00001482  1
    X00001214  C00000165  1
    X00001214  C00000166  -1
    X00001214  C00001264  1
    X00001214  C00001482  1
    X00001215  C00000172  1
    X00001215  C00000173  -1
    X00001215  C00001265  1
    X00001215  C00001482  1
    X00001216  C00000179  1
    X00001216  C00000180  -1
    X00001216  C00001266  1
    X00001216  C00001482  1
    X00001217  C00000186  1
    X00001217  C00000187  -1
    X00001217  C00001267  1
    X00001217  C00001482  1
    X00001218  C00000193  1
    X00001218  C00000194  -1
    X00001218  C00001268  1
    X00001218  C00001482  1
    X00001219  C00000200  1
    X00001219  C00000201  -1
    X00001219  C00001269  1
    X00001219  C00001482  1
    X00001220  C00000207  1
    X00001220  C00000208  -1
    X00001220  C00001270  1
    X00001220  C00001482  1
    X00001221  C00000214  1
    X00001221  C00000215  -1
    X00001221  C00001261  1
    X00001221  C00001483  -1
    X00001222  C00000221  1
    X00001222  C00000222  -1
    X00001222  C00001262  1
    X00001222  C00001483  1
    X00001223  C00000228  1
    X00001223  C00000229  -1
    X00001223  C00001263  1
    X00001223  C00001483  1
    X00001224  C00000235  1
    X00001224  C00000236  -1
    X00001224  C00001264  1
    X00001224  C00001483  1
    X00001225  C00000242  1
    X00001225  C00000243  -1
    X00001225  C00001265  1
    X00001225  C00001483  1
    X00001226  C00000249  1
    X00001226  C00000250  -1
    X00001226  C00001266  1
    X00001226  C00001483  1
    X00001227  C00000256  1
    X00001227  C00000257  -1
    X00001227  C00001267  1
    X00001227  C00001483  1
    X00001228  C00000263  1
    X00001228  C00000264  -1
    X00001228  C00001268  1
    X00001228  C00001483  1
    X00001229  C00000270  1
    X00001229  C00000271  -1
    X00001229  C00001269  1
    X00001229  C00001483  1
    X00001230  C00000277  1
    X00001230  C00000278  -1
    X00001230  C00001270  1
    X00001230  C00001483  1
    X00001231  C00000284  1
    X00001231  C00000285  -1
    X00001231  C00001261  1
    X00001231  C00001484  -1
    X00001232  C00000291  1
    X00001232  C00000292  -1
    X00001232  C00001262  1
    X00001232  C00001484  1
    X00001233  C00000298  1
    X00001233  C00000299  -1
    X00001233  C00001263  1
    X00001233  C00001484  1
    X00001234  C00000305  1
    X00001234  C00000306  -1
    X00001234  C00001264  1
    X00001234  C00001484  1
    X00001235  C00000312  1
    X00001235  C00000313  -1
    X00001235  C00001265  1
    X00001235  C00001484  1
    X00001236  C00000319  1
    X00001236  C00000320  -1
    X00001236  C00001266  1
    X00001236  C00001484  1
    X00001237  C00000326  1
    X00001237  C00000327  -1
    X00001237  C00001267  1
    X00001237  C00001484  1
    X00001238  C00000333  1
    X00001238  C00000334  -1
    X00001238  C00001268  1
    X00001238  C00001484  1
    X00001239  C00000340  1
    X00001239  C00000341  -1
    X00001239  C00001269  1
    X00001239  C00001484  1
    X00001240  C00000347  1
    X00001240  C00000348  -1
    X00001240  C00001270  1
    X00001240  C00001484  1
    X00001241  C00000354  1
    X00001241  C00000355  -1
    X00001241  C00001261  1
    X00001241  C00001485  -1
    X00001242  C00000361  1
    X00001242  C00000362  -1
    X00001242  C00001262  1
    X00001242  C00001485  1
    X00001243  C00000368  1
    X00001243  C00000369  -1
    X00001243  C00001263  1
    X00001243  C00001485  1
    X00001244  C00000375  1
    X00001244  C00000376  -1
    X00001244  C00001264  1
    X00001244  C00001485  1
    X00001245  C00000382  1
    X00001245  C00000383  -1
    X00001245  C00001265  1
    X00001245  C00001485  1
    X00001246  C00000389  1
    X00001246  C00000390  -1
    X00001246  C00001266  1
    X00001246  C00001485  1
    X00001247  C00000396  1
    X00001247  C00000397  -1
    X00001247  C00001267  1
    X00001247  C00001485  1
    X00001248  C00000403  1
    X00001248  C00000404  -1
    X00001248  C00001268  1
    X00001248  C00001485  1
    X00001249  C00000410  1
    X00001249  C00000411  -1
    X00001249  C00001269  1
    X00001249  C00001485  1
    X00001250  C00000417  1
    X00001250  C00000418  -1
    X00001250  C00001270  1
    X00001250  C00001485  1
    X00001251  C00000424  1
    X00001251  C00000425  -1
    X00001251  C00001261  1
    X00001251  C00001486  -1
    X00001252  C00000431  1
    X00001252  C00000432  -1
    X00001252  C00001262  1
    X00001252  C00001486  1
    X00001253  C00000438  1
    X00001253  C00000439  -1
    X00001253  C00001263  1
    X00001253  C00001486  1
    X00001254  C00000445  1
    X00001254  C00000446  -1
    X00001254  C00001264  1
    X00001254  C00001486  1
    X00001255  C00000452  1
    X00001255  C00000453  -1
    X00001255  C00001265  1
    X00001255  C00001486  1
    X00001256  C00000459  1
    X00001256  C00000460  -1
    X00001256  C00001266  1
    X00001256  C00001486  1
    X00001257  C00000466  1
    X00001257  C00000467  -1
    X00001257  C00001267  1
    X00001257  C00001486  1
    X00001258  C00000473  1
    X00001258  C00000474  -1
    X00001258  C00001268  1
    X00001258  C00001486  1
    X00001259  C00000480  1
    X00001259  C00000481  -1
    X00001259  C00001269  1
    X00001259  C00001486  1
    X00001260  C00000487  1
    X00001260  C00000488  -1
    X00001260  C00001270  1
    X00001260  C00001486  1
    X00001261  C00000494  1
    X00001261  C00000495  -1
    X00001261  C00001261  1
    X00001261  C00001487  -1
    X00001262  C00000501  1
    X00001262  C00000502  -1
    X00001262  C00001262  1
    X00001262  C00001487  1
    X00001263  C00000508  1
    X00001263  C00000509  -1
    X00001263  C00001263  1
    X00001263  C00001487  1
    X00001264  C00000515  1
    X00001264  C00000516  -1
    X00001264  C00001264  1
    X00001264  C00001487  1
    X00001265  C00000522  1
    X00001265  C00000523  -1
    X00001265  C00001265  1
    X00001265  C00001487  1
    X00001266  C00000529  1
    X00001266  C00000530  -1
    X00001266  C00001266  1
    X00001266  C00001487  1
    X00001267  C00000536  1
    X00001267  C00000537  -1
    X00001267  C00001267  1
    X00001267  C00001487  1
    X00001268  C00000543  1
    X00001268  C00000544  -1
    X00001268  C00001268  1
    X00001268  C00001487  1
    X00001269  C00000550  1
    X00001269  C00000551  -1
    X00001269  C00001269  1
    X00001269  C00001487  1
    X00001270  C00000557  1
    X00001270  C00000558  -1
    X00001270  C00001270  1
    X00001270  C00001487  1
    X00001271  C00000564  1
    X00001271  C00000565  -1
    X00001271  C00001261  1
    X00001271  C00001488  -1
    X00001272  C00000571  1
    X00001272  C00000572  -1
    X00001272  C00001262  1
    X00001272  C00001488  1
    X00001273  C00000578  1
    X00001273  C00000579  -1
    X00001273  C00001263  1
    X00001273  C00001488  1
    X00001274  C00000585  1
    X00001274  C00000586  -1
    X00001274  C00001264  1
    X00001274  C00001488  1
    X00001275  C00000592  1
    X00001275  C00000593  -1
    X00001275  C00001265  1
    X00001275  C00001488  1
    X00001276  C00000599  1
    X00001276  C00000600  -1
    X00001276  C00001266  1
    X00001276  C00001488  1
    X00001277  C00000606  1
    X00001277  C00000607  -1
    X00001277  C00001267  1
    X00001277  C00001488  1
    X00001278  C00000613  1
    X00001278  C00000614  -1
    X00001278  C00001268  1
    X00001278  C00001488  1
    X00001279  C00000620  1
    X00001279  C00000621  -1
    X00001279  C00001269  1
    X00001279  C00001488  1
    X00001280  C00000627  1
    X00001280  C00000628  -1
    X00001280  C00001270  1
    X00001280  C00001488  1
    X00001281  C00000634  1
    X00001281  C00000635  -1
    X00001281  C00001261  1
    X00001281  C00001489  -1
    X00001282  C00000641  1
    X00001282  C00000642  -1
    X00001282  C00001262  1
    X00001282  C00001489  1
    X00001283  C00000648  1
    X00001283  C00000649  -1
    X00001283  C00001263  1
    X00001283  C00001489  1
    X00001284  C00000655  1
    X00001284  C00000656  -1
    X00001284  C00001264  1
    X00001284  C00001489  1
    X00001285  C00000662  1
    X00001285  C00000663  -1
    X00001285  C00001265  1
    X00001285  C00001489  1
    X00001286  C00000669  1
    X00001286  C00000670  -1
    X00001286  C00001266  1
    X00001286  C00001489  1
    X00001287  C00000676  1
    X00001287  C00000677  -1
    X00001287  C00001267  1
    X00001287  C00001489  1
    X00001288  C00000683  1
    X00001288  C00000684  -1
    X00001288  C00001268  1
    X00001288  C00001489  1
    X00001289  C00000690  1
    X00001289  C00000691  -1
    X00001289  C00001269  1
    X00001289  C00001489  1
    X00001290  C00000697  1
    X00001290  C00000698  -1
    X00001290  C00001270  1
    X00001290  C00001489  1
    X00001291  C00000704  1
    X00001291  C00000705  -1
    X00001291  C00001261  1
    X00001291  C00001490  -1
    X00001292  C00000711  1
    X00001292  C00000712  -1
    X00001292  C00001262  1
    X00001292  C00001490  1
    X00001293  C00000718  1
    X00001293  C00000719  -1
    X00001293  C00001263  1
    X00001293  C00001490  1
    X00001294  C00000725  1
    X00001294  C00000726  -1
    X00001294  C00001264  1
    X00001294  C00001490  1
    X00001295  C00000732  1
    X00001295  C00000733  -1
    X00001295  C00001265  1
    X00001295  C00001490  1
    X00001296  C00000739  1
    X00001296  C00000740  -1
    X00001296  C00001266  1
    X00001296  C00001490  1
    X00001297  C00000746  1
    X00001297  C00000747  -1
    X00001297  C00001267  1
    X00001297  C00001490  1
    X00001298  C00000753  1
    X00001298  C00000754  -1
    X00001298  C00001268  1
    X00001298  C00001490  1
    X00001299  C00000760  1
    X00001299  C00000761  -1
    X00001299  C00001269  1
    X00001299  C00001490  1
    X00001300  C00000767  1
    X00001300  C00000768  -1
    X00001300  C00001270  1
    X00001300  C00001490  1
    X00001301  C00000774  1
    X00001301  C00000775  -1
    X00001301  C00001261  1
    X00001301  C00001491  -1
    X00001302  C00000781  1
    X00001302  C00000782  -1
    X00001302  C00001262  1
    X00001302  C00001491  1
    X00001303  C00000788  1
    X00001303  C00000789  -1
    X00001303  C00001263  1
    X00001303  C00001491  1
    X00001304  C00000795  1
    X00001304  C00000796  -1
    X00001304  C00001264  1
    X00001304  C00001491  1
    X00001305  C00000802  1
    X00001305  C00000803  -1
    X00001305  C00001265  1
    X00001305  C00001491  1
    X00001306  C00000809  1
    X00001306  C00000810  -1
    X00001306  C00001266  1
    X00001306  C00001491  1
    X00001307  C00000816  1
    X00001307  C00000817  -1
    X00001307  C00001267  1
    X00001307  C00001491  1
    X00001308  C00000823  1
    X00001308  C00000824  -1
    X00001308  C00001268  1
    X00001308  C00001491  1
    X00001309  C00000830  1
    X00001309  C00000831  -1
    X00001309  C00001269  1
    X00001309  C00001491  1
    X00001310  C00000837  1
    X00001310  C00000838  -1
    X00001310  C00001270  1
    X00001310  C00001491  1
    X00001311  C00000844  1
    X00001311  C00000845  -1
    X00001311  C00001261  1
    X00001311  C00001492  -1
    X00001312  C00000851  1
    X00001312  C00000852  -1
    X00001312  C00001262  1
    X00001312  C00001492  1
    X00001313  C00000858  1
    X00001313  C00000859  -1
    X00001313  C00001263  1
    X00001313  C00001492  1
    X00001314  C00000865  1
    X00001314  C00000866  -1
    X00001314  C00001264  1
    X00001314  C00001492  1
    X00001315  C00000872  1
    X00001315  C00000873  -1
    X00001315  C00001265  1
    X00001315  C00001492  1
    X00001316  C00000879  1
    X00001316  C00000880  -1
    X00001316  C00001266  1
    X00001316  C00001492  1
    X00001317  C00000886  1
    X00001317  C00000887  -1
    X00001317  C00001267  1
    X00001317  C00001492  1
    X00001318  C00000893  1
    X00001318  C00000894  -1
    X00001318  C00001268  1
    X00001318  C00001492  1
    X00001319  C00000900  1
    X00001319  C00000901  -1
    X00001319  C00001269  1
    X00001319  C00001492  1
    X00001320  C00000907  1
    X00001320  C00000908  -1
    X00001320  C00001270  1
    X00001320  C00001492  1
    X00001321  C00000914  1
    X00001321  C00000915  -1
    X00001321  C00001261  1
    X00001321  C00001493  -1
    X00001322  C00000921  1
    X00001322  C00000922  -1
    X00001322  C00001262  1
    X00001322  C00001493  1
    X00001323  C00000928  1
    X00001323  C00000929  -1
    X00001323  C00001263  1
    X00001323  C00001493  1
    X00001324  C00000935  1
    X00001324  C00000936  -1
    X00001324  C00001264  1
    X00001324  C00001493  1
    X00001325  C00000942  1
    X00001325  C00000943  -1
    X00001325  C00001265  1
    X00001325  C00001493  1
    X00001326  C00000949  1
    X00001326  C00000950  -1
    X00001326  C00001266  1
    X00001326  C00001493  1
    X00001327  C00000956  1
    X00001327  C00000957  -1
    X00001327  C00001267  1
    X00001327  C00001493  1
    X00001328  C00000963  1
    X00001328  C00000964  -1
    X00001328  C00001268  1
    X00001328  C00001493  1
    X00001329  C00000970  1
    X00001329  C00000971  -1
    X00001329  C00001269  1
    X00001329  C00001493  1
    X00001330  C00000977  1
    X00001330  C00000978  -1
    X00001330  C00001270  1
    X00001330  C00001493  1
    X00001331  C00000984  1
    X00001331  C00000985  -1
    X00001331  C00001261  1
    X00001331  C00001494  -1
    X00001332  C00000991  1
    X00001332  C00000992  -1
    X00001332  C00001262  1
    X00001332  C00001494  1
    X00001333  C00000998  1
    X00001333  C00000999  -1
    X00001333  C00001263  1
    X00001333  C00001494  1
    X00001334  C00001005  1
    X00001334  C00001006  -1
    X00001334  C00001264  1
    X00001334  C00001494  1
    X00001335  C00001012  1
    X00001335  C00001013  -1
    X00001335  C00001265  1
    X00001335  C00001494  1
    X00001336  C00001019  1
    X00001336  C00001020  -1
    X00001336  C00001266  1
    X00001336  C00001494  1
    X00001337  C00001026  1
    X00001337  C00001027  -1
    X00001337  C00001267  1
    X00001337  C00001494  1
    X00001338  C00001033  1
    X00001338  C00001034  -1
    X00001338  C00001268  1
    X00001338  C00001494  1
    X00001339  C00001040  1
    X00001339  C00001041  -1
    X00001339  C00001269  1
    X00001339  C00001494  1
    X00001340  C00001047  1
    X00001340  C00001048  -1
    X00001340  C00001270  1
    X00001340  C00001494  1
    X00001341  C00001054  1
    X00001341  C00001055  -1
    X00001341  C00001261  1
    X00001341  C00001495  -1
    X00001342  C00001061  1
    X00001342  C00001062  -1
    X00001342  C00001262  1
    X00001342  C00001495  1
    X00001343  C00001068  1
    X00001343  C00001069  -1
    X00001343  C00001263  1
    X00001343  C00001495  1
    X00001344  C00001075  1
    X00001344  C00001076  -1
    X00001344  C00001264  1
    X00001344  C00001495  1
    X00001345  C00001082  1
    X00001345  C00001083  -1
    X00001345  C00001265  1
    X00001345  C00001495  1
    X00001346  C00001089  1
    X00001346  C00001090  -1
    X00001346  C00001266  1
    X00001346  C00001495  1
    X00001347  C00001096  1
    X00001347  C00001097  -1
    X00001347  C00001267  1
    X00001347  C00001495  1
    X00001348  C00001103  1
    X00001348  C00001104  -1
    X00001348  C00001268  1
    X00001348  C00001495  1
    X00001349  C00001110  1
    X00001349  C00001111  -1
    X00001349  C00001269  1
    X00001349  C00001495  1
    X00001350  C00001117  1
    X00001350  C00001118  -1
    X00001350  C00001270  1
    X00001350  C00001495  1
    X00001351  C00001124  1
    X00001351  C00001125  -1
    X00001351  C00001261  1
    X00001351  C00001496  -1
    X00001352  C00001131  1
    X00001352  C00001132  -1
    X00001352  C00001262  1
    X00001352  C00001496  1
    X00001353  C00001138  1
    X00001353  C00001139  -1
    X00001353  C00001263  1
    X00001353  C00001496  1
    X00001354  C00001145  1
    X00001354  C00001146  -1
    X00001354  C00001264  1
    X00001354  C00001496  1
    X00001355  C00001152  1
    X00001355  C00001153  -1
    X00001355  C00001265  1
    X00001355  C00001496  1
    X00001356  C00001159  1
    X00001356  C00001160  -1
    X00001356  C00001266  1
    X00001356  C00001496  1
    X00001357  C00001166  1
    X00001357  C00001167  -1
    X00001357  C00001267  1
    X00001357  C00001496  1
    X00001358  C00001173  1
    X00001358  C00001174  -1
    X00001358  C00001268  1
    X00001358  C00001496  1
    X00001359  C00001180  1
    X00001359  C00001181  -1
    X00001359  C00001269  1
    X00001359  C00001496  1
    X00001360  C00001187  1
    X00001360  C00001188  -1
    X00001360  C00001270  1
    X00001360  C00001496  1
    X00001361  C00000005  1
    X00001361  C00001271  -1
    X00001361  C00001497  -1
    X00001362  C00000012  1
    X00001362  C00001272  -1
    X00001362  C00001497  1
    X00001363  C00000019  1
    X00001363  C00001273  -1
    X00001363  C00001497  1
    X00001364  C00000026  1
    X00001364  C00001274  -1
    X00001364  C00001497  1
    X00001365  C00000033  1
    X00001365  C00001275  -1
    X00001365  C00001497  1
    X00001366  C00000040  1
    X00001366  C00001276  -1
    X00001366  C00001497  1
    X00001367  C00000047  1
    X00001367  C00001277  -1
    X00001367  C00001497  1
    X00001368  C00000054  1
    X00001368  C00001278  -1
    X00001368  C00001497  1
    X00001369  C00000061  1
    X00001369  C00001279  -1
    X00001369  C00001497  1
    X00001370  C00000068  1
    X00001370  C00001280  -1
    X00001370  C00001497  1
    X00001371  C00000075  1
    X00001371  C00001271  1
    X00001371  C00001498  -1
    X00001372  C00000082  1
    X00001372  C00001272  1
    X00001372  C00001498  1
    X00001373  C00000089  1
    X00001373  C00001273  1
    X00001373  C00001498  1
    X00001374  C00000096  1
    X00001374  C00001274  1
    X00001374  C00001498  1
    X00001375  C00000103  1
    X00001375  C00001275  1
    X00001375  C00001498  1
    X00001376  C00000110  1
    X00001376  C00001276  1
    X00001376  C00001498  1
    X00001377  C00000117  1
    X00001377  C00001277  1
    X00001377  C00001498  1
    X00001378  C00000124  1
    X00001378  C00001278  1
    X00001378  C00001498  1
    X00001379  C00000131  1
    X00001379  C00001279  1
    X00001379  C00001498  1
    X00001380  C00000138  1
    X00001380  C00001280  1
    X00001380  C00001498  1
    X00001381  C00000145  1
    X00001381  C00001271  1
    X00001381  C00001499  -1
    X00001382  C00000152  1
    X00001382  C00001272  1
    X00001382  C00001499  1
    X00001383  C00000159  1
    X00001383  C00001273  1
    X00001383  C00001499  1
    X00001384  C00000166  1
    X00001384  C00001274  1
    X00001384  C00001499  1
    X00001385  C00000173  1
    X00001385  C00001275  1
    X00001385  C00001499  1
    X00001386  C00000180  1
    X00001386  C00001276  1
    X00001386  C00001499  1
    X00001387  C00000187  1
    X00001387  C00001277  1
    X00001387  C00001499  1
    X00001388  C00000194  1
    X00001388  C00001278  1
    X00001388  C00001499  1
    X00001389  C00000201  1
    X00001389  C00001279  1
    X00001389  C00001499  1
    X00001390  C00000208  1
    X00001390  C00001280  1
    X00001390  C00001499  1
    X00001391  C00000215  1
    X00001391  C00001271  1
    X00001391  C00001500  -1
    X00001392  C00000222  1
    X00001392  C00001272  1
    X00001392  C00001500  1
    X00001393  C00000229  1
    X00001393  C00001273  1
    X00001393  C00001500  1
    X00001394  C00000236  1
    X00001394  C00001274  1
    X00001394  C00001500  1
    X00001395  C00000243  1
    X00001395  C00001275  1
    X00001395  C00001500  1
    X00001396  C00000250  1
    X00001396  C00001276  1
    X00001396  C00001500  1
    X00001397  C00000257  1
    X00001397  C00001277  1
    X00001397  C00001500  1
    X00001398  C00000264  1
    X00001398  C00001278  1
    X00001398  C00001500  1
    X00001399  C00000271  1
    X00001399  C00001279  1
    X00001399  C00001500  1
    X00001400  C00000278  1
    X00001400  C00001280  1
    X00001400  C00001500  1
    X00001401  C00000285  1
    X00001401  C00001271  1
    X00001401  C00001501  -1
    X00001402  C00000292  1
    X00001402  C00001272  1
    X00001402  C00001501  1
    X00001403  C00000299  1
    X00001403  C00001273  1
    X00001403  C00001501  1
    X00001404  C00000306  1
    X00001404  C00001274  1
    X00001404  C00001501  1
    X00001405  C00000313  1
    X00001405  C00001275  1
    X00001405  C00001501  1
    X00001406  C00000320  1
    X00001406  C00001276  1
    X00001406  C00001501  1
    X00001407  C00000327  1
    X00001407  C00001277  1
    X00001407  C00001501  1
    X00001408  C00000334  1
    X00001408  C00001278  1
    X00001408  C00001501  1
    X00001409  C00000341  1
    X00001409  C00001279  1
    X00001409  C00001501  1
    X00001410  C00000348  1
    X00001410  C00001280  1
    X00001410  C00001501  1
    X00001411  C00000355  1
    X00001411  C00001271  1
    X00001411  C00001502  -1
    X00001412  C00000362  1
    X00001412  C00001272  1
    X00001412  C00001502  1
    X00001413  C00000369  1
    X00001413  C00001273  1
    X00001413  C00001502  1
    X00001414  C00000376  1
    X00001414  C00001274  1
    X00001414  C00001502  1
    X00001415  C00000383  1
    X00001415  C00001275  1
    X00001415  C00001502  1
    X00001416  C00000390  1
    X00001416  C00001276  1
    X00001416  C00001502  1
    X00001417  C00000397  1
    X00001417  C00001277  1
    X00001417  C00001502  1
    X00001418  C00000404  1
    X00001418  C00001278  1
    X00001418  C00001502  1
    X00001419  C00000411  1
    X00001419  C00001279  1
    X00001419  C00001502  1
    X00001420  C00000418  1
    X00001420  C00001280  1
    X00001420  C00001502  1
    X00001421  C00000425  1
    X00001421  C00001271  1
    X00001421  C00001503  -1
    X00001422  C00000432  1
    X00001422  C00001272  1
    X00001422  C00001503  1
    X00001423  C00000439  1
    X00001423  C00001273  1
    X00001423  C00001503  1
    X00001424  C00000446  1
    X00001424  C00001274  1
    X00001424  C00001503  1
    X00001425  C00000453  1
    X00001425  C00001275  1
    X00001425  C00001503  1
    X00001426  C00000460  1
    X00001426  C00001276  1
    X00001426  C00001503  1
    X00001427  C00000467  1
    X00001427  C00001277  1
    X00001427  C00001503  1
    X00001428  C00000474  1
    X00001428  C00001278  1
    X00001428  C00001503  1
    X00001429  C00000481  1
    X00001429  C00001279  1
    X00001429  C00001503  1
    X00001430  C00000488  1
    X00001430  C00001280  1
    X00001430  C00001503  1
    X00001431  C00000495  1
    X00001431  C00001271  1
    X00001431  C00001504  -1
    X00001432  C00000502  1
    X00001432  C00001272  1
    X00001432  C00001504  1
    X00001433  C00000509  1
    X00001433  C00001273  1
    X00001433  C00001504  1
    X00001434  C00000516  1
    X00001434  C00001274  1
    X00001434  C00001504  1
    X00001435  C00000523  1
    X00001435  C00001275  1
    X00001435  C00001504  1
    X00001436  C00000530  1
    X00001436  C00001276  1
    X00001436  C00001504  1
    X00001437  C00000537  1
    X00001437  C00001277  1
    X00001437  C00001504  1
    X00001438  C00000544  1
    X00001438  C00001278  1
    X00001438  C00001504  1
    X00001439  C00000551  1
    X00001439  C00001279  1
    X00001439  C00001504  1
    X00001440  C00000558  1
    X00001440  C00001280  1
    X00001440  C00001504  1
    X00001441  C00000565  1
    X00001441  C00001271  1
    X00001441  C00001505  -1
    X00001442  C00000572  1
    X00001442  C00001272  1
    X00001442  C00001505  1
    X00001443  C00000579  1
    X00001443  C00001273  1
    X00001443  C00001505  1
    X00001444  C00000586  1
    X00001444  C00001274  1
    X00001444  C00001505  1
    X00001445  C00000593  1
    X00001445  C00001275  1
    X00001445  C00001505  1
    X00001446  C00000600  1
    X00001446  C00001276  1
    X00001446  C00001505  1
    X00001447  C00000607  1
    X00001447  C00001277  1
    X00001447  C00001505  1
    X00001448  C00000614  1
    X00001448  C00001278  1
    X00001448  C00001505  1
    X00001449  C00000621  1
    X00001449  C00001279  1
    X00001449  C00001505  1
    X00001450  C00000628  1
    X00001450  C00001280  1
    X00001450  C00001505  1
    X00001451  C00000635  1
    X00001451  C00001271  1
    X00001451  C00001506  -1
    X00001452  C00000642  1
    X00001452  C00001272  1
    X00001452  C00001506  1
    X00001453  C00000649  1
    X00001453  C00001273  1
    X00001453  C00001506  1
    X00001454  C00000656  1
    X00001454  C00001274  1
    X00001454  C00001506  1
    X00001455  C00000663  1
    X00001455  C00001275  1
    X00001455  C00001506  1
    X00001456  C00000670  1
    X00001456  C00001276  1
    X00001456  C00001506  1
    X00001457  C00000677  1
    X00001457  C00001277  1
    X00001457  C00001506  1
    X00001458  C00000684  1
    X00001458  C00001278  1
    X00001458  C00001506  1
    X00001459  C00000691  1
    X00001459  C00001279  1
    X00001459  C00001506  1
    X00001460  C00000698  1
    X00001460  C00001280  1
    X00001460  C00001506  1
    X00001461  C00000705  1
    X00001461  C00001271  1
    X00001461  C00001507  -1
    X00001462  C00000712  1
    X00001462  C00001272  1
    X00001462  C00001507  1
    X00001463  C00000719  1
    X00001463  C00001273  1
    X00001463  C00001507  1
    X00001464  C00000726  1
    X00001464  C00001274  1
    X00001464  C00001507  1
    X00001465  C00000733  1
    X00001465  C00001275  1
    X00001465  C00001507  1
    X00001466  C00000740  1
    X00001466  C00001276  1
    X00001466  C00001507  1
    X00001467  C00000747  1
    X00001467  C00001277  1
    X00001467  C00001507  1
    X00001468  C00000754  1
    X00001468  C00001278  1
    X00001468  C00001507  1
    X00001469  C00000761  1
    X00001469  C00001279  1
    X00001469  C00001507  1
    X00001470  C00000768  1
    X00001470  C00001280  1
    X00001470  C00001507  1
    X00001471  C00000775  1
    X00001471  C00001271  1
    X00001471  C00001508  -1
    X00001472  C00000782  1
    X00001472  C00001272  1
    X00001472  C00001508  1
    X00001473  C00000789  1
    X00001473  C00001273  1
    X00001473  C00001508  1
    X00001474  C00000796  1
    X00001474  C00001274  1
    X00001474  C00001508  1
    X00001475  C00000803  1
    X00001475  C00001275  1
    X00001475  C00001508  1
    X00001476  C00000810  1
    X00001476  C00001276  1
    X00001476  C00001508  1
    X00001477  C00000817  1
    X00001477  C00001277  1
    X00001477  C00001508  1
    X00001478  C00000824  1
    X00001478  C00001278  1
    X00001478  C00001508  1
    X00001479  C00000831  1
    X00001479  C00001279  1
    X00001479  C00001508  1
    X00001480  C00000838  1
    X00001480  C00001280  1
    X00001480  C00001508  1
    X00001481  C00000845  1
    X00001481  C00001271  1
    X00001481  C00001509  -1
    X00001482  C00000852  1
    X00001482  C00001272  1
    X00001482  C00001509  1
    X00001483  C00000859  1
    X00001483  C00001273  1
    X00001483  C00001509  1
    X00001484  C00000866  1
    X00001484  C00001274  1
    X00001484  C00001509  1
    X00001485  C00000873  1
    X00001485  C00001275  1
    X00001485  C00001509  1
    X00001486  C00000880  1
    X00001486  C00001276  1
    X00001486  C00001509  1
    X00001487  C00000887  1
    X00001487  C00001277  1
    X00001487  C00001509  1
    X00001488  C00000894  1
    X00001488  C00001278  1
    X00001488  C00001509  1
    X00001489  C00000901  1
    X00001489  C00001279  1
    X00001489  C00001509  1
    X00001490  C00000908  1
    X00001490  C00001280  1
    X00001490  C00001509  1
    X00001491  C00000915  1
    X00001491  C00001271  1
    X00001491  C00001510  -1
    X00001492  C00000922  1
    X00001492  C00001272  1
    X00001492  C00001510  1
    X00001493  C00000929  1
    X00001493  C00001273  1
    X00001493  C00001510  1
    X00001494  C00000936  1
    X00001494  C00001274  1
    X00001494  C00001510  1
    X00001495  C00000943  1
    X00001495  C00001275  1
    X00001495  C00001510  1
    X00001496  C00000950  1
    X00001496  C00001276  1
    X00001496  C00001510  1
    X00001497  C00000957  1
    X00001497  C00001277  1
    X00001497  C00001510  1
    X00001498  C00000964  1
    X00001498  C00001278  1
    X00001498  C00001510  1
    X00001499  C00000971  1
    X00001499  C00001279  1
    X00001499  C00001510  1
    X00001500  C00000978  1
    X00001500  C00001280  1
    X00001500  C00001510  1
    X00001501  C00000985  1
    X00001501  C00001271  1
    X00001501  C00001511  -1
    X00001502  C00000992  1
    X00001502  C00001272  1
    X00001502  C00001511  1
    X00001503  C00000999  1
    X00001503  C00001273  1
    X00001503  C00001511  1
    X00001504  C00001006  1
    X00001504  C00001274  1
    X00001504  C00001511  1
    X00001505  C00001013  1
    X00001505  C00001275  1
    X00001505  C00001511  1
    X00001506  C00001020  1
    X00001506  C00001276  1
    X00001506  C00001511  1
    X00001507  C00001027  1
    X00001507  C00001277  1
    X00001507  C00001511  1
    X00001508  C00001034  1
    X00001508  C00001278  1
    X00001508  C00001511  1
    X00001509  C00001041  1
    X00001509  C00001279  1
    X00001509  C00001511  1
    X00001510  C00001048  1
    X00001510  C00001280  1
    X00001510  C00001511  1
    X00001511  C00001055  1
    X00001511  C00001271  1
    X00001511  C00001512  -1
    X00001512  C00001062  1
    X00001512  C00001272  1
    X00001512  C00001512  1
    X00001513  C00001069  1
    X00001513  C00001273  1
    X00001513  C00001512  1
    X00001514  C00001076  1
    X00001514  C00001274  1
    X00001514  C00001512  1
    X00001515  C00001083  1
    X00001515  C00001275  1
    X00001515  C00001512  1
    X00001516  C00001090  1
    X00001516  C00001276  1
    X00001516  C00001512  1
    X00001517  C00001097  1
    X00001517  C00001277  1
    X00001517  C00001512  1
    X00001518  C00001104  1
    X00001518  C00001278  1
    X00001518  C00001512  1
    X00001519  C00001111  1
    X00001519  C00001279  1
    X00001519  C00001512  1
    X00001520  C00001118  1
    X00001520  C00001280  1
    X00001520  C00001512  1
    X00001521  C00001125  1
    X00001521  C00001271  1
    X00001521  C00001513  -1
    X00001522  C00001132  1
    X00001522  C00001272  1
    X00001522  C00001513  1
    X00001523  C00001139  1
    X00001523  C00001273  1
    X00001523  C00001513  1
    X00001524  C00001146  1
    X00001524  C00001274  1
    X00001524  C00001513  1
    X00001525  C00001153  1
    X00001525  C00001275  1
    X00001525  C00001513  1
    X00001526  C00001160  1
    X00001526  C00001276  1
    X00001526  C00001513  1
    X00001527  C00001167  1
    X00001527  C00001277  1
    X00001527  C00001513  1
    X00001528  C00001174  1
    X00001528  C00001278  1
    X00001528  C00001513  1
    X00001529  C00001181  1
    X00001529  C00001279  1
    X00001529  C00001513  1
    X00001530  C00001188  1
    X00001530  C00001280  1
    X00001530  C00001513  1
    X00001531  C00000005  1
    X00001531  C00000006  -1
    X00001531  C00001281  -1
    X00001531  C00001514  -1
    X00001532  C00000012  1
    X00001532  C00000013  -1
    X00001532  C00001282  -1
    X00001532  C00001514  1
    X00001533  C00000019  1
    X00001533  C00000020  -1
    X00001533  C00001283  -1
    X00001533  C00001514  1
    X00001534  C00000026  1
    X00001534  C00000027  -1
    X00001534  C00001284  -1
    X00001534  C00001514  1
    X00001535  C00000033  1
    X00001535  C00000034  -1
    X00001535  C00001285  -1
    X00001535  C00001514  1
    X00001536  C00000040  1
    X00001536  C00000041  -1
    X00001536  C00001286  -1
    X00001536  C00001514  1
    X00001537  C00000047  1
    X00001537  C00000048  -1
    X00001537  C00001287  -1
    X00001537  C00001514  1
    X00001538  C00000054  1
    X00001538  C00000055  -1
    X00001538  C00001288  -1
    X00001538  C00001514  1
    X00001539  C00000061  1
    X00001539  C00000062  -1
    X00001539  C00001289  -1
    X00001539  C00001514  1
    X00001540  C00000068  1
    X00001540  C00000069  -1
    X00001540  C00001290  -1
    X00001540  C00001514  1
    X00001541  C00000075  1
    X00001541  C00000076  -1
    X00001541  C00001281  1
    X00001541  C00001515  -1
    X00001542  C00000082  1
    X00001542  C00000083  -1
    X00001542  C00001282  1
    X00001542  C00001515  1
    X00001543  C00000089  1
    X00001543  C00000090  -1
    X00001543  C00001283  1
    X00001543  C00001515  1
    X00001544  C00000096  1
    X00001544  C00000097  -1
    X00001544  C00001284  1
    X00001544  C00001515  1
    X00001545  C00000103  1
    X00001545  C00000104  -1
    X00001545  C00001285  1
    X00001545  C00001515  1
    X00001546  C00000110  1
    X00001546  C00000111  -1
    X00001546  C00001286  1
    X00001546  C00001515  1
    X00001547  C00000117  1
    X00001547  C00000118  -1
    X00001547  C00001287  1
    X00001547  C00001515  1
    X00001548  C00000124  1
    X00001548  C00000125  -1
    X00001548  C00001288  1
    X00001548  C00001515  1
    X00001549  C00000131  1
    X00001549  C00000132  -1
    X00001549  C00001289  1
    X00001549  C00001515  1
    X00001550  C00000138  1
    X00001550  C00000139  -1
    X00001550  C00001290  1
    X00001550  C00001515  1
    X00001551  C00000145  1
    X00001551  C00000146  -1
    X00001551  C00001281  1
    X00001551  C00001516  -1
    X00001552  C00000152  1
    X00001552  C00000153  -1
    X00001552  C00001282  1
    X00001552  C00001516  1
    X00001553  C00000159  1
    X00001553  C00000160  -1
    X00001553  C00001283  1
    X00001553  C00001516  1
    X00001554  C00000166  1
    X00001554  C00000167  -1
    X00001554  C00001284  1
    X00001554  C00001516  1
    X00001555  C00000173  1
    X00001555  C00000174  -1
    X00001555  C00001285  1
    X00001555  C00001516  1
    X00001556  C00000180  1
    X00001556  C00000181  -1
    X00001556  C00001286  1
    X00001556  C00001516  1
    X00001557  C00000187  1
    X00001557  C00000188  -1
    X00001557  C00001287  1
    X00001557  C00001516  1
    X00001558  C00000194  1
    X00001558  C00000195  -1
    X00001558  C00001288  1
    X00001558  C00001516  1
    X00001559  C00000201  1
    X00001559  C00000202  -1
    X00001559  C00001289  1
    X00001559  C00001516  1
    X00001560  C00000208  1
    X00001560  C00000209  -1
    X00001560  C00001290  1
    X00001560  C00001516  1
    X00001561  C00000215  1
    X00001561  C00000216  -1
    X00001561  C00001281  1
    X00001561  C00001517  -1
    X00001562  C00000222  1
    X00001562  C00000223  -1
    X00001562  C00001282  1
    X00001562  C00001517  1
    X00001563  C00000229  1
    X00001563  C00000230  -1
    X00001563  C00001283  1
    X00001563  C00001517  1
    X00001564  C00000236  1
    X00001564  C00000237  -1
    X00001564  C00001284  1
    X00001564  C00001517  1
    X00001565  C00000243  1
    X00001565  C00000244  -1
    X00001565  C00001285  1
    X00001565  C00001517  1
    X00001566  C00000250  1
    X00001566  C00000251  -1
    X00001566  C00001286  1
    X00001566  C00001517  1
    X00001567  C00000257  1
    X00001567  C00000258  -1
    X00001567  C00001287  1
    X00001567  C00001517  1
    X00001568  C00000264  1
    X00001568  C00000265  -1
    X00001568  C00001288  1
    X00001568  C00001517  1
    X00001569  C00000271  1
    X00001569  C00000272  -1
    X00001569  C00001289  1
    X00001569  C00001517  1
    X00001570  C00000278  1
    X00001570  C00000279  -1
    X00001570  C00001290  1
    X00001570  C00001517  1
    X00001571  C00000285  1
    X00001571  C00000286  -1
    X00001571  C00001281  1
    X00001571  C00001518  -1
    X00001572  C00000292  1
    X00001572  C00000293  -1
    X00001572  C00001282  1
    X00001572  C00001518  1
    X00001573  C00000299  1
    X00001573  C00000300  -1
    X00001573  C00001283  1
    X00001573  C00001518  1
    X00001574  C00000306  1
    X00001574  C00000307  -1
    X00001574  C00001284  1
    X00001574  C00001518  1
    X00001575  C00000313  1
    X00001575  C00000314  -1
    X00001575  C00001285  1
    X00001575  C00001518  1
    X00001576  C00000320  1
    X00001576  C00000321  -1
    X00001576  C00001286  1
    X00001576  C00001518  1
    X00001577  C00000327  1
    X00001577  C00000328  -1
    X00001577  C00001287  1
    X00001577  C00001518  1
    X00001578  C00000334  1
    X00001578  C00000335  -1
    X00001578  C00001288  1
    X00001578  C00001518  1
    X00001579  C00000341  1
    X00001579  C00000342  -1
    X00001579  C00001289  1
    X00001579  C00001518  1
    X00001580  C00000348  1
    X00001580  C00000349  -1
    X00001580  C00001290  1
    X00001580  C00001518  1
    X00001581  C00000355  1
    X00001581  C00000356  -1
    X00001581  C00001281  1
    X00001581  C00001519  -1
    X00001582  C00000362  1
    X00001582  C00000363  -1
    X00001582  C00001282  1
    X00001582  C00001519  1
    X00001583  C00000369  1
    X00001583  C00000370  -1
    X00001583  C00001283  1
    X00001583  C00001519  1
    X00001584  C00000376  1
    X00001584  C00000377  -1
    X00001584  C00001284  1
    X00001584  C00001519  1
    X00001585  C00000383  1
    X00001585  C00000384  -1
    X00001585  C00001285  1
    X00001585  C00001519  1
    X00001586  C00000390  1
    X00001586  C00000391  -1
    X00001586  C00001286  1
    X00001586  C00001519  1
    X00001587  C00000397  1
    X00001587  C00000398  -1
    X00001587  C00001287  1
    X00001587  C00001519  1
    X00001588  C00000404  1
    X00001588  C00000405  -1
    X00001588  C00001288  1
    X00001588  C00001519  1
    X00001589  C00000411  1
    X00001589  C00000412  -1
    X00001589  C00001289  1
    X00001589  C00001519  1
    X00001590  C00000418  1
    X00001590  C00000419  -1
    X00001590  C00001290  1
    X00001590  C00001519  1
    X00001591  C00000425  1
    X00001591  C00000426  -1
    X00001591  C00001281  1
    X00001591  C00001520  -1
    X00001592  C00000432  1
    X00001592  C00000433  -1
    X00001592  C00001282  1
    X00001592  C00001520  1
    X00001593  C00000439  1
    X00001593  C00000440  -1
    X00001593  C00001283  1
    X00001593  C00001520  1
    X00001594  C00000446  1
    X00001594  C00000447  -1
    X00001594  C00001284  1
    X00001594  C00001520  1
    X00001595  C00000453  1
    X00001595  C00000454  -1
    X00001595  C00001285  1
    X00001595  C00001520  1
    X00001596  C00000460  1
    X00001596  C00000461  -1
    X00001596  C00001286  1
    X00001596  C00001520  1
    X00001597  C00000467  1
    X00001597  C00000468  -1
    X00001597  C00001287  1
    X00001597  C00001520  1
    X00001598  C00000474  1
    X00001598  C00000475  -1
    X00001598  C00001288  1
    X00001598  C00001520  1
    X00001599  C00000481  1
    X00001599  C00000482  -1
    X00001599  C00001289  1
    X00001599  C00001520  1
    X00001600  C00000488  1
    X00001600  C00000489  -1
    X00001600  C00001290  1
    X00001600  C00001520  1
    X00001601  C00000495  1
    X00001601  C00000496  -1
    X00001601  C00001281  1
    X00001601  C00001521  -1
    X00001602  C00000502  1
    X00001602  C00000503  -1
    X00001602  C00001282  1
    X00001602  C00001521  1
    X00001603  C00000509  1
    X00001603  C00000510  -1
    X00001603  C00001283  1
    X00001603  C00001521  1
    X00001604  C00000516  1
    X00001604  C00000517  -1
    X00001604  C00001284  1
    X00001604  C00001521  1
    X00001605  C00000523  1
    X00001605  C00000524  -1
    X00001605  C00001285  1
    X00001605  C00001521  1
    X00001606  C00000530  1
    X00001606  C00000531  -1
    X00001606  C00001286  1
    X00001606  C00001521  1
    X00001607  C00000537  1
    X00001607  C00000538  -1
    X00001607  C00001287  1
    X00001607  C00001521  1
    X00001608  C00000544  1
    X00001608  C00000545  -1
    X00001608  C00001288  1
    X00001608  C00001521  1
    X00001609  C00000551  1
    X00001609  C00000552  -1
    X00001609  C00001289  1
    X00001609  C00001521  1
    X00001610  C00000558  1
    X00001610  C00000559  -1
    X00001610  C00001290  1
    X00001610  C00001521  1
    X00001611  C00000565  1
    X00001611  C00000566  -1
    X00001611  C00001281  1
    X00001611  C00001522  -1
    X00001612  C00000572  1
    X00001612  C00000573  -1
    X00001612  C00001282  1
    X00001612  C00001522  1
    X00001613  C00000579  1
    X00001613  C00000580  -1
    X00001613  C00001283  1
    X00001613  C00001522  1
    X00001614  C00000586  1
    X00001614  C00000587  -1
    X00001614  C00001284  1
    X00001614  C00001522  1
    X00001615  C00000593  1
    X00001615  C00000594  -1
    X00001615  C00001285  1
    X00001615  C00001522  1
    X00001616  C00000600  1
    X00001616  C00000601  -1
    X00001616  C00001286  1
    X00001616  C00001522  1
    X00001617  C00000607  1
    X00001617  C00000608  -1
    X00001617  C00001287  1
    X00001617  C00001522  1
    X00001618  C00000614  1
    X00001618  C00000615  -1
    X00001618  C00001288  1
    X00001618  C00001522  1
    X00001619  C00000621  1
    X00001619  C00000622  -1
    X00001619  C00001289  1
    X00001619  C00001522  1
    X00001620  C00000628  1
    X00001620  C00000629  -1
    X00001620  C00001290  1
    X00001620  C00001522  1
    X00001621  C00000635  1
    X00001621  C00000636  -1
    X00001621  C00001281  1
    X00001621  C00001523  -1
    X00001622  C00000642  1
    X00001622  C00000643  -1
    X00001622  C00001282  1
    X00001622  C00001523  1
    X00001623  C00000649  1
    X00001623  C00000650  -1
    X00001623  C00001283  1
    X00001623  C00001523  1
    X00001624  C00000656  1
    X00001624  C00000657  -1
    X00001624  C00001284  1
    X00001624  C00001523  1
    X00001625  C00000663  1
    X00001625  C00000664  -1
    X00001625  C00001285  1
    X00001625  C00001523  1
    X00001626  C00000670  1
    X00001626  C00000671  -1
    X00001626  C00001286  1
    X00001626  C00001523  1
    X00001627  C00000677  1
    X00001627  C00000678  -1
    X00001627  C00001287  1
    X00001627  C00001523  1
    X00001628  C00000684  1
    X00001628  C00000685  -1
    X00001628  C00001288  1
    X00001628  C00001523  1
    X00001629  C00000691  1
    X00001629  C00000692  -1
    X00001629  C00001289  1
    X00001629  C00001523  1
    X00001630  C00000698  1
    X00001630  C00000699  -1
    X00001630  C00001290  1
    X00001630  C00001523  1
    X00001631  C00000705  1
    X00001631  C00000706  -1
    X00001631  C00001281  1
    X00001631  C00001524  -1
    X00001632  C00000712  1
    X00001632  C00000713  -1
    X00001632  C00001282  1
    X00001632  C00001524  1
    X00001633  C00000719  1
    X00001633  C00000720  -1
    X00001633  C00001283  1
    X00001633  C00001524  1
    X00001634  C00000726  1
    X00001634  C00000727  -1
    X00001634  C00001284  1
    X00001634  C00001524  1
    X00001635  C00000733  1
    X00001635  C00000734  -1
    X00001635  C00001285  1
    X00001635  C00001524  1
    X00001636  C00000740  1
    X00001636  C00000741  -1
    X00001636  C00001286  1
    X00001636  C00001524  1
    X00001637  C00000747  1
    X00001637  C00000748  -1
    X00001637  C00001287  1
    X00001637  C00001524  1
    X00001638  C00000754  1
    X00001638  C00000755  -1
    X00001638  C00001288  1
    X00001638  C00001524  1
    X00001639  C00000761  1
    X00001639  C00000762  -1
    X00001639  C00001289  1
    X00001639  C00001524  1
    X00001640  C00000768  1
    X00001640  C00000769  -1
    X00001640  C00001290  1
    X00001640  C00001524  1
    X00001641  C00000775  1
    X00001641  C00000776  -1
    X00001641  C00001281  1
    X00001641  C00001525  -1
    X00001642  C00000782  1
    X00001642  C00000783  -1
    X00001642  C00001282  1
    X00001642  C00001525  1
    X00001643  C00000789  1
    X00001643  C00000790  -1
    X00001643  C00001283  1
    X00001643  C00001525  1
    X00001644  C00000796  1
    X00001644  C00000797  -1
    X00001644  C00001284  1
    X00001644  C00001525  1
    X00001645  C00000803  1
    X00001645  C00000804  -1
    X00001645  C00001285  1
    X00001645  C00001525  1
    X00001646  C00000810  1
    X00001646  C00000811  -1
    X00001646  C00001286  1
    X00001646  C00001525  1
    X00001647  C00000817  1
    X00001647  C00000818  -1
    X00001647  C00001287  1
    X00001647  C00001525  1
    X00001648  C00000824  1
    X00001648  C00000825  -1
    X00001648  C00001288  1
    X00001648  C00001525  1
    X00001649  C00000831  1
    X00001649  C00000832  -1
    X00001649  C00001289  1
    X00001649  C00001525  1
    X00001650  C00000838  1
    X00001650  C00000839  -1
    X00001650  C00001290  1
    X00001650  C00001525  1
    X00001651  C00000845  1
    X00001651  C00000846  -1
    X00001651  C00001281  1
    X00001651  C00001526  -1
    X00001652  C00000852  1
    X00001652  C00000853  -1
    X00001652  C00001282  1
    X00001652  C00001526  1
    X00001653  C00000859  1
    X00001653  C00000860  -1
    X00001653  C00001283  1
    X00001653  C00001526  1
    X00001654  C00000866  1
    X00001654  C00000867  -1
    X00001654  C00001284  1
    X00001654  C00001526  1
    X00001655  C00000873  1
    X00001655  C00000874  -1
    X00001655  C00001285  1
    X00001655  C00001526  1
    X00001656  C00000880  1
    X00001656  C00000881  -1
    X00001656  C00001286  1
    X00001656  C00001526  1
    X00001657  C00000887  1
    X00001657  C00000888  -1
    X00001657  C00001287  1
    X00001657  C00001526  1
    X00001658  C00000894  1
    X00001658  C00000895  -1
    X00001658  C00001288  1
    X00001658  C00001526  1
    X00001659  C00000901  1
    X00001659  C00000902  -1
    X00001659  C00001289  1
    X00001659  C00001526  1
    X00001660  C00000908  1
    X00001660  C00000909  -1
    X00001660  C00001290  1
    X00001660  C00001526  1
    X00001661  C00000915  1
    X00001661  C00000916  -1
    X00001661  C00001281  1
    X00001661  C00001527  -1
    X00001662  C00000922  1
    X00001662  C00000923  -1
    X00001662  C00001282  1
    X00001662  C00001527  1
    X00001663  C00000929  1
    X00001663  C00000930  -1
    X00001663  C00001283  1
    X00001663  C00001527  1
    X00001664  C00000936  1
    X00001664  C00000937  -1
    X00001664  C00001284  1
    X00001664  C00001527  1
    X00001665  C00000943  1
    X00001665  C00000944  -1
    X00001665  C00001285  1
    X00001665  C00001527  1
    X00001666  C00000950  1
    X00001666  C00000951  -1
    X00001666  C00001286  1
    X00001666  C00001527  1
    X00001667  C00000957  1
    X00001667  C00000958  -1
    X00001667  C00001287  1
    X00001667  C00001527  1
    X00001668  C00000964  1
    X00001668  C00000965  -1
    X00001668  C00001288  1
    X00001668  C00001527  1
    X00001669  C00000971  1
    X00001669  C00000972  -1
    X00001669  C00001289  1
    X00001669  C00001527  1
    X00001670  C00000978  1
    X00001670  C00000979  -1
    X00001670  C00001290  1
    X00001670  C00001527  1
    X00001671  C00000985  1
    X00001671  C00000986  -1
    X00001671  C00001281  1
    X00001671  C00001528  -1
    X00001672  C00000992  1
    X00001672  C00000993  -1
    X00001672  C00001282  1
    X00001672  C00001528  1
    X00001673  C00000999  1
    X00001673  C00001000  -1
    X00001673  C00001283  1
    X00001673  C00001528  1
    X00001674  C00001006  1
    X00001674  C00001007  -1
    X00001674  C00001284  1
    X00001674  C00001528  1
    X00001675  C00001013  1
    X00001675  C00001014  -1
    X00001675  C00001285  1
    X00001675  C00001528  1
    X00001676  C00001020  1
    X00001676  C00001021  -1
    X00001676  C00001286  1
    X00001676  C00001528  1
    X00001677  C00001027  1
    X00001677  C00001028  -1
    X00001677  C00001287  1
    X00001677  C00001528  1
    X00001678  C00001034  1
    X00001678  C00001035  -1
    X00001678  C00001288  1
    X00001678  C00001528  1
    X00001679  C00001041  1
    X00001679  C00001042  -1
    X00001679  C00001289  1
    X00001679  C00001528  1
    X00001680  C00001048  1
    X00001680  C00001049  -1
    X00001680  C00001290  1
    X00001680  C00001528  1
    X00001681  C00001055  1
    X00001681  C00001056  -1
    X00001681  C00001281  1
    X00001681  C00001529  -1
    X00001682  C00001062  1
    X00001682  C00001063  -1
    X00001682  C00001282  1
    X00001682  C00001529  1
    X00001683  C00001069  1
    X00001683  C00001070  -1
    X00001683  C00001283  1
    X00001683  C00001529  1
    X00001684  C00001076  1
    X00001684  C00001077  -1
    X00001684  C00001284  1
    X00001684  C00001529  1
    X00001685  C00001083  1
    X00001685  C00001084  -1
    X00001685  C00001285  1
    X00001685  C00001529  1
    X00001686  C00001090  1
    X00001686  C00001091  -1
    X00001686  C00001286  1
    X00001686  C00001529  1
    X00001687  C00001097  1
    X00001687  C00001098  -1
    X00001687  C00001287  1
    X00001687  C00001529  1
    X00001688  C00001104  1
    X00001688  C00001105  -1
    X00001688  C00001288  1
    X00001688  C00001529  1
    X00001689  C00001111  1
    X00001689  C00001112  -1
    X00001689  C00001289  1
    X00001689  C00001529  1
    X00001690  C00001118  1
    X00001690  C00001119  -1
    X00001690  C00001290  1
    X00001690  C00001529  1
    X00001691  C00001125  1
    X00001691  C00001126  -1
    X00001691  C00001281  1
    X00001691  C00001530  -1
    X00001692  C00001132  1
    X00001692  C00001133  -1
    X00001692  C00001282  1
    X00001692  C00001530  1
    X00001693  C00001139  1
    X00001693  C00001140  -1
    X00001693  C00001283  1
    X00001693  C00001530  1
    X00001694  C00001146  1
    X00001694  C00001147  -1
    X00001694  C00001284  1
    X00001694  C00001530  1
    X00001695  C00001153  1
    X00001695  C00001154  -1
    X00001695  C00001285  1
    X00001695  C00001530  1
    X00001696  C00001160  1
    X00001696  C00001161  -1
    X00001696  C00001286  1
    X00001696  C00001530  1
    X00001697  C00001167  1
    X00001697  C00001168  -1
    X00001697  C00001287  1
    X00001697  C00001530  1
    X00001698  C00001174  1
    X00001698  C00001175  -1
    X00001698  C00001288  1
    X00001698  C00001530  1
    X00001699  C00001181  1
    X00001699  C00001182  -1
    X00001699  C00001289  1
    X00001699  C00001530  1
    X00001700  C00001188  1
    X00001700  C00001189  -1
    X00001700  C00001290  1
    X00001700  C00001530  1
    X00001701  C00000006  1
    X00001701  C00001291  -1
    X00001701  C00001531  -1
    X00001702  C00000013  1
    X00001702  C00001292  -1
    X00001702  C00001531  1
    X00001703  C00000020  1
    X00001703  C00001293  -1
    X00001703  C00001531  1
    X00001704  C00000027  1
    X00001704  C00001294  -1
    X00001704  C00001531  1
    X00001705  C00000034  1
    X00001705  C00001295  -1
    X00001705  C00001531  1
    X00001706  C00000041  1
    X00001706  C00001296  -1
    X00001706  C00001531  1
    X00001707  C00000048  1
    X00001707  C00001297  -1
    X00001707  C00001531  1
    X00001708  C00000055  1
    X00001708  C00001298  -1
    X00001708  C00001531  1
    X00001709  C00000062  1
    X00001709  C00001299  -1
    X00001709  C00001531  1
    X00001710  C00000069  1
    X00001710  C00001300  -1
    X00001710  C00001531  1
    X00001711  C00000076  1
    X00001711  C00001291  1
    X00001711  C00001532  -1
    X00001712  C00000083  1
    X00001712  C00001292  1
    X00001712  C00001532  1
    X00001713  C00000090  1
    X00001713  C00001293  1
    X00001713  C00001532  1
    X00001714  C00000097  1
    X00001714  C00001294  1
    X00001714  C00001532  1
    X00001715  C00000104  1
    X00001715  C00001295  1
    X00001715  C00001532  1
    X00001716  C00000111  1
    X00001716  C00001296  1
    X00001716  C00001532  1
    X00001717  C00000118  1
    X00001717  C00001297  1
    X00001717  C00001532  1
    X00001718  C00000125  1
    X00001718  C00001298  1
    X00001718  C00001532  1
    X00001719  C00000132  1
    X00001719  C00001299  1
    X00001719  C00001532  1
    X00001720  C00000139  1
    X00001720  C00001300  1
    X00001720  C00001532  1
    X00001721  C00000146  1
    X00001721  C00001291  1
    X00001721  C00001533  -1
    X00001722  C00000153  1
    X00001722  C00001292  1
    X00001722  C00001533  1
    X00001723  C00000160  1
    X00001723  C00001293  1
    X00001723  C00001533  1
    X00001724  C00000167  1
    X00001724  C00001294  1
    X00001724  C00001533  1
    X00001725  C00000174  1
    X00001725  C00001295  1
    X00001725  C00001533  1
    X00001726  C00000181  1
    X00001726  C00001296  1
    X00001726  C00001533  1
    X00001727  C00000188  1
    X00001727  C00001297  1
    X00001727  C00001533  1
    X00001728  C00000195  1
    X00001728  C00001298  1
    X00001728  C00001533  1
    X00001729  C00000202  1
    X00001729  C00001299  1
    X00001729  C00001533  1
    X00001730  C00000209  1
    X00001730  C00001300  1
    X00001730  C00001533  1
    X00001731  C00000216  1
    X00001731  C00001291  1
    X00001731  C00001534  -1
    X00001732  C00000223  1
    X00001732  C00001292  1
    X00001732  C00001534  1
    X00001733  C00000230  1
    X00001733  C00001293  1
    X00001733  C00001534  1
    X00001734  C00000237  1
    X00001734  C00001294  1
    X00001734  C00001534  1
    X00001735  C00000244  1
    X00001735  C00001295  1
    X00001735  C00001534  1
    X00001736  C00000251  1
    X00001736  C00001296  1
    X00001736  C00001534  1
    X00001737  C00000258  1
    X00001737  C00001297  1
    X00001737  C00001534  1
    X00001738  C00000265  1
    X00001738  C00001298  1
    X00001738  C00001534  1
    X00001739  C00000272  1
    X00001739  C00001299  1
    X00001739  C00001534  1
    X00001740  C00000279  1
    X00001740  C00001300  1
    X00001740  C00001534  1
    X00001741  C00000286  1
    X00001741  C00001291  1
    X00001741  C00001535  -1
    X00001742  C00000293  1
    X00001742  C00001292  1
    X00001742  C00001535  1
    X00001743  C00000300  1
    X00001743  C00001293  1
    X00001743  C00001535  1
    X00001744  C00000307  1
    X00001744  C00001294  1
    X00001744  C00001535  1
    X00001745  C00000314  1
    X00001745  C00001295  1
    X00001745  C00001535  1
    X00001746  C00000321  1
    X00001746  C00001296  1
    X00001746  C00001535  1
    X00001747  C00000328  1
    X00001747  C00001297  1
    X00001747  C00001535  1
    X00001748  C00000335  1
    X00001748  C00001298  1
    X00001748  C00001535  1
    X00001749  C00000342  1
    X00001749  C00001299  1
    X00001749  C00001535  1
    X00001750  C00000349  1
    X00001750  C00001300  1
    X00001750  C00001535  1
    X00001751  C00000356  1
    X00001751  C00001291  1
    X00001751  C00001536  -1
    X00001752  C00000363  1
    X00001752  C00001292  1
    X00001752  C00001536  1
    X00001753  C00000370  1
    X00001753  C00001293  1
    X00001753  C00001536  1
    X00001754  C00000377  1
    X00001754  C00001294  1
    X00001754  C00001536  1
    X00001755  C00000384  1
    X00001755  C00001295  1
    X00001755  C00001536  1
    X00001756  C00000391  1
    X00001756  C00001296  1
    X00001756  C00001536  1
    X00001757  C00000398  1
    X00001757  C00001297  1
    X00001757  C00001536  1
    X00001758  C00000405  1
    X00001758  C00001298  1
    X00001758  C00001536  1
    X00001759  C00000412  1
    X00001759  C00001299  1
    X00001759  C00001536  1
    X00001760  C00000419  1
    X00001760  C00001300  1
    X00001760  C00001536  1
    X00001761  C00000426  1
    X00001761  C00001291  1
    X00001761  C00001537  -1
    X00001762  C00000433  1
    X00001762  C00001292  1
    X00001762  C00001537  1
    X00001763  C00000440  1
    X00001763  C00001293  1
    X00001763  C00001537  1
    X00001764  C00000447  1
    X00001764  C00001294  1
    X00001764  C00001537  1
    X00001765  C00000454  1
    X00001765  C00001295  1
    X00001765  C00001537  1
    X00001766  C00000461  1
    X00001766  C00001296  1
    X00001766  C00001537  1
    X00001767  C00000468  1
    X00001767  C00001297  1
    X00001767  C00001537  1
    X00001768  C00000475  1
    X00001768  C00001298  1
    X00001768  C00001537  1
    X00001769  C00000482  1
    X00001769  C00001299  1
    X00001769  C00001537  1
    X00001770  C00000489  1
    X00001770  C00001300  1
    X00001770  C00001537  1
    X00001771  C00000496  1
    X00001771  C00001291  1
    X00001771  C00001538  -1
    X00001772  C00000503  1
    X00001772  C00001292  1
    X00001772  C00001538  1
    X00001773  C00000510  1
    X00001773  C00001293  1
    X00001773  C00001538  1
    X00001774  C00000517  1
    X00001774  C00001294  1
    X00001774  C00001538  1
    X00001775  C00000524  1
    X00001775  C00001295  1
    X00001775  C00001538  1
    X00001776  C00000531  1
    X00001776  C00001296  1
    X00001776  C00001538  1
    X00001777  C00000538  1
    X00001777  C00001297  1
    X00001777  C00001538  1
    X00001778  C00000545  1
    X00001778  C00001298  1
    X00001778  C00001538  1
    X00001779  C00000552  1
    X00001779  C00001299  1
    X00001779  C00001538  1
    X00001780  C00000559  1
    X00001780  C00001300  1
    X00001780  C00001538  1
    X00001781  C00000566  1
    X00001781  C00001291  1
    X00001781  C00001539  -1
    X00001782  C00000573  1
    X00001782  C00001292  1
    X00001782  C00001539  1
    X00001783  C00000580  1
    X00001783  C00001293  1
    X00001783  C00001539  1
    X00001784  C00000587  1
    X00001784  C00001294  1
    X00001784  C00001539  1
    X00001785  C00000594  1
    X00001785  C00001295  1
    X00001785  C00001539  1
    X00001786  C00000601  1
    X00001786  C00001296  1
    X00001786  C00001539  1
    X00001787  C00000608  1
    X00001787  C00001297  1
    X00001787  C00001539  1
    X00001788  C00000615  1
    X00001788  C00001298  1
    X00001788  C00001539  1
    X00001789  C00000622  1
    X00001789  C00001299  1
    X00001789  C00001539  1
    X00001790  C00000629  1
    X00001790  C00001300  1
    X00001790  C00001539  1
    X00001791  C00000636  1
    X00001791  C00001291  1
    X00001791  C00001540  -1
    X00001792  C00000643  1
    X00001792  C00001292  1
    X00001792  C00001540  1
    X00001793  C00000650  1
    X00001793  C00001293  1
    X00001793  C00001540  1
    X00001794  C00000657  1
    X00001794  C00001294  1
    X00001794  C00001540  1
    X00001795  C00000664  1
    X00001795  C00001295  1
    X00001795  C00001540  1
    X00001796  C00000671  1
    X00001796  C00001296  1
    X00001796  C00001540  1
    X00001797  C00000678  1
    X00001797  C00001297  1
    X00001797  C00001540  1
    X00001798  C00000685  1
    X00001798  C00001298  1
    X00001798  C00001540  1
    X00001799  C00000692  1
    X00001799  C00001299  1
    X00001799  C00001540  1
    X00001800  C00000699  1
    X00001800  C00001300  1
    X00001800  C00001540  1
    X00001801  C00000706  1
    X00001801  C00001291  1
    X00001801  C00001541  -1
    X00001802  C00000713  1
    X00001802  C00001292  1
    X00001802  C00001541  1
    X00001803  C00000720  1
    X00001803  C00001293  1
    X00001803  C00001541  1
    X00001804  C00000727  1
    X00001804  C00001294  1
    X00001804  C00001541  1
    X00001805  C00000734  1
    X00001805  C00001295  1
    X00001805  C00001541  1
    X00001806  C00000741  1
    X00001806  C00001296  1
    X00001806  C00001541  1
    X00001807  C00000748  1
    X00001807  C00001297  1
    X00001807  C00001541  1
    X00001808  C00000755  1
    X00001808  C00001298  1
    X00001808  C00001541  1
    X00001809  C00000762  1
    X00001809  C00001299  1
    X00001809  C00001541  1
    X00001810  C00000769  1
    X00001810  C00001300  1
    X00001810  C00001541  1
    X00001811  C00000776  1
    X00001811  C00001291  1
    X00001811  C00001542  -1
    X00001812  C00000783  1
    X00001812  C00001292  1
    X00001812  C00001542  1
    X00001813  C00000790  1
    X00001813  C00001293  1
    X00001813  C00001542  1
    X00001814  C00000797  1
    X00001814  C00001294  1
    X00001814  C00001542  1
    X00001815  C00000804  1
    X00001815  C00001295  1
    X00001815  C00001542  1
    X00001816  C00000811  1
    X00001816  C00001296  1
    X00001816  C00001542  1
    X00001817  C00000818  1
    X00001817  C00001297  1
    X00001817  C00001542  1
    X00001818  C00000825  1
    X00001818  C00001298  1
    X00001818  C00001542  1
    X00001819  C00000832  1
    X00001819  C00001299  1
    X00001819  C00001542  1
    X00001820  C00000839  1
    X00001820  C00001300  1
    X00001820  C00001542  1
    X00001821  C00000846  1
    X00001821  C00001291  1
    X00001821  C00001543  -1
    X00001822  C00000853  1
    X00001822  C00001292  1
    X00001822  C00001543  1
    X00001823  C00000860  1
    X00001823  C00001293  1
    X00001823  C00001543  1
    X00001824  C00000867  1
    X00001824  C00001294  1
    X00001824  C00001543  1
    X00001825  C00000874  1
    X00001825  C00001295  1
    X00001825  C00001543  1
    X00001826  C00000881  1
    X00001826  C00001296  1
    X00001826  C00001543  1
    X00001827  C00000888  1
    X00001827  C00001297  1
    X00001827  C00001543  1
    X00001828  C00000895  1
    X00001828  C00001298  1
    X00001828  C00001543  1
    X00001829  C00000902  1
    X00001829  C00001299  1
    X00001829  C00001543  1
    X00001830  C00000909  1
    X00001830  C00001300  1
    X00001830  C00001543  1
    X00001831  C00000916  1
    X00001831  C00001291  1
    X00001831  C00001544  -1
    X00001832  C00000923  1
    X00001832  C00001292  1
    X00001832  C00001544  1
    X00001833  C00000930  1
    X00001833  C00001293  1
    X00001833  C00001544  1
    X00001834  C00000937  1
    X00001834  C00001294  1
    X00001834  C00001544  1
    X00001835  C00000944  1
    X00001835  C00001295  1
    X00001835  C00001544  1
    X00001836  C00000951  1
    X00001836  C00001296  1
    X00001836  C00001544  1
    X00001837  C00000958  1
    X00001837  C00001297  1
    X00001837  C00001544  1
    X00001838  C00000965  1
    X00001838  C00001298  1
    X00001838  C00001544  1
    X00001839  C00000972  1
    X00001839  C00001299  1
    X00001839  C00001544  1
    X00001840  C00000979  1
    X00001840  C00001300  1
    X00001840  C00001544  1
    X00001841  C00000986  1
    X00001841  C00001291  1
    X00001841  C00001545  -1
    X00001842  C00000993  1
    X00001842  C00001292  1
    X00001842  C00001545  1
    X00001843  C00001000  1
    X00001843  C00001293  1
    X00001843  C00001545  1
    X00001844  C00001007  1
    X00001844  C00001294  1
    X00001844  C00001545  1
    X00001845  C00001014  1
    X00001845  C00001295  1
    X00001845  C00001545  1
    X00001846  C00001021  1
    X00001846  C00001296  1
    X00001846  C00001545  1
    X00001847  C00001028  1
    X00001847  C00001297  1
    X00001847  C00001545  1
    X00001848  C00001035  1
    X00001848  C00001298  1
    X00001848  C00001545  1
    X00001849  C00001042  1
    X00001849  C00001299  1
    X00001849  C00001545  1
    X00001850  C00001049  1
    X00001850  C00001300  1
    X00001850  C00001545  1
    X00001851  C00001056  1
    X00001851  C00001291  1
    X00001851  C00001546  -1
    X00001852  C00001063  1
    X00001852  C00001292  1
    X00001852  C00001546  1
    X00001853  C00001070  1
    X00001853  C00001293  1
    X00001853  C00001546  1
    X00001854  C00001077  1
    X00001854  C00001294  1
    X00001854  C00001546  1
    X00001855  C00001084  1
    X00001855  C00001295  1
    X00001855  C00001546  1
    X00001856  C00001091  1
    X00001856  C00001296  1
    X00001856  C00001546  1
    X00001857  C00001098  1
    X00001857  C00001297  1
    X00001857  C00001546  1
    X00001858  C00001105  1
    X00001858  C00001298  1
    X00001858  C00001546  1
    X00001859  C00001112  1
    X00001859  C00001299  1
    X00001859  C00001546  1
    X00001860  C00001119  1
    X00001860  C00001300  1
    X00001860  C00001546  1
    X00001861  C00001126  1
    X00001861  C00001291  1
    X00001861  C00001547  -1
    X00001862  C00001133  1
    X00001862  C00001292  1
    X00001862  C00001547  1
    X00001863  C00001140  1
    X00001863  C00001293  1
    X00001863  C00001547  1
    X00001864  C00001147  1
    X00001864  C00001294  1
    X00001864  C00001547  1
    X00001865  C00001154  1
    X00001865  C00001295  1
    X00001865  C00001547  1
    X00001866  C00001161  1
    X00001866  C00001296  1
    X00001866  C00001547  1
    X00001867  C00001168  1
    X00001867  C00001297  1
    X00001867  C00001547  1
    X00001868  C00001175  1
    X00001868  C00001298  1
    X00001868  C00001547  1
    X00001869  C00001182  1
    X00001869  C00001299  1
    X00001869  C00001547  1
    X00001870  C00001189  1
    X00001870  C00001300  1
    X00001870  C00001547  1
    X00001871  C00000006  1
    X00001871  C00001301  -1
    X00001871  C00001548  -1
    X00001872  C00000013  1
    X00001872  C00001302  -1
    X00001872  C00001548  1
    X00001873  C00000020  1
    X00001873  C00001303  -1
    X00001873  C00001548  1
    X00001874  C00000027  1
    X00001874  C00001304  -1
    X00001874  C00001548  1
    X00001875  C00000034  1
    X00001875  C00001305  -1
    X00001875  C00001548  1
    X00001876  C00000041  1
    X00001876  C00001306  -1
    X00001876  C00001548  1
    X00001877  C00000048  1
    X00001877  C00001307  -1
    X00001877  C00001548  1
    X00001878  C00000055  1
    X00001878  C00001308  -1
    X00001878  C00001548  1
    X00001879  C00000062  1
    X00001879  C00001309  -1
    X00001879  C00001548  1
    X00001880  C00000069  1
    X00001880  C00001310  -1
    X00001880  C00001548  1
    X00001881  C00000076  1
    X00001881  C00001301  1
    X00001881  C00001549  -1
    X00001882  C00000083  1
    X00001882  C00001302  1
    X00001882  C00001549  1
    X00001883  C00000090  1
    X00001883  C00001303  1
    X00001883  C00001549  1
    X00001884  C00000097  1
    X00001884  C00001304  1
    X00001884  C00001549  1
    X00001885  C00000104  1
    X00001885  C00001305  1
    X00001885  C00001549  1
    X00001886  C00000111  1
    X00001886  C00001306  1
    X00001886  C00001549  1
    X00001887  C00000118  1
    X00001887  C00001307  1
    X00001887  C00001549  1
    X00001888  C00000125  1
    X00001888  C00001308  1
    X00001888  C00001549  1
    X00001889  C00000132  1
    X00001889  C00001309  1
    X00001889  C00001549  1
    X00001890  C00000139  1
    X00001890  C00001310  1
    X00001890  C00001549  1
    X00001891  C00000146  1
    X00001891  C00001301  1
    X00001891  C00001550  -1
    X00001892  C00000153  1
    X00001892  C00001302  1
    X00001892  C00001550  1
    X00001893  C00000160  1
    X00001893  C00001303  1
    X00001893  C00001550  1
    X00001894  C00000167  1
    X00001894  C00001304  1
    X00001894  C00001550  1
    X00001895  C00000174  1
    X00001895  C00001305  1
    X00001895  C00001550  1
    X00001896  C00000181  1
    X00001896  C00001306  1
    X00001896  C00001550  1
    X00001897  C00000188  1
    X00001897  C00001307  1
    X00001897  C00001550  1
    X00001898  C00000195  1
    X00001898  C00001308  1
    X00001898  C00001550  1
    X00001899  C00000202  1
    X00001899  C00001309  1
    X00001899  C00001550  1
    X00001900  C00000209  1
    X00001900  C00001310  1
    X00001900  C00001550  1
    X00001901  C00000216  1
    X00001901  C00001301  1
    X00001901  C00001551  -1
    X00001902  C00000223  1
    X00001902  C00001302  1
    X00001902  C00001551  1
    X00001903  C00000230  1
    X00001903  C00001303  1
    X00001903  C00001551  1
    X00001904  C00000237  1
    X00001904  C00001304  1
    X00001904  C00001551  1
    X00001905  C00000244  1
    X00001905  C00001305  1
    X00001905  C00001551  1
    X00001906  C00000251  1
    X00001906  C00001306  1
    X00001906  C00001551  1
    X00001907  C00000258  1
    X00001907  C00001307  1
    X00001907  C00001551  1
    X00001908  C00000265  1
    X00001908  C00001308  1
    X00001908  C00001551  1
    X00001909  C00000272  1
    X00001909  C00001309  1
    X00001909  C00001551  1
    X00001910  C00000279  1
    X00001910  C00001310  1
    X00001910  C00001551  1
    X00001911  C00000286  1
    X00001911  C00001301  1
    X00001911  C00001552  -1
    X00001912  C00000293  1
    X00001912  C00001302  1
    X00001912  C00001552  1
    X00001913  C00000300  1
    X00001913  C00001303  1
    X00001913  C00001552  1
    X00001914  C00000307  1
    X00001914  C00001304  1
    X00001914  C00001552  1
    X00001915  C00000314  1
    X00001915  C00001305  1
    X00001915  C00001552  1
    X00001916  C00000321  1
    X00001916  C00001306  1
    X00001916  C00001552  1
    X00001917  C00000328  1
    X00001917  C00001307  1
    X00001917  C00001552  1
    X00001918  C00000335  1
    X00001918  C00001308  1
    X00001918  C00001552  1
    X00001919  C00000342  1
    X00001919  C00001309  1
    X00001919  C00001552  1
    X00001920  C00000349  1
    X00001920  C00001310  1
    X00001920  C00001552  1
    X00001921  C00000356  1
    X00001921  C00001301  1
    X00001921  C00001553  -1
    X00001922  C00000363  1
    X00001922  C00001302  1
    X00001922  C00001553  1
    X00001923  C00000370  1
    X00001923  C00001303  1
    X00001923  C00001553  1
    X00001924  C00000377  1
    X00001924  C00001304  1
    X00001924  C00001553  1
    X00001925  C00000384  1
    X00001925  C00001305  1
    X00001925  C00001553  1
    X00001926  C00000391  1
    X00001926  C00001306  1
    X00001926  C00001553  1
    X00001927  C00000398  1
    X00001927  C00001307  1
    X00001927  C00001553  1
    X00001928  C00000405  1
    X00001928  C00001308  1
    X00001928  C00001553  1
    X00001929  C00000412  1
    X00001929  C00001309  1
    X00001929  C00001553  1
    X00001930  C00000419  1
    X00001930  C00001310  1
    X00001930  C00001553  1
    X00001931  C00000426  1
    X00001931  C00001301  1
    X00001931  C00001554  -1
    X00001932  C00000433  1
    X00001932  C00001302  1
    X00001932  C00001554  1
    X00001933  C00000440  1
    X00001933  C00001303  1
    X00001933  C00001554  1
    X00001934  C00000447  1
    X00001934  C00001304  1
    X00001934  C00001554  1
    X00001935  C00000454  1
    X00001935  C00001305  1
    X00001935  C00001554  1
    X00001936  C00000461  1
    X00001936  C00001306  1
    X00001936  C00001554  1
    X00001937  C00000468  1
    X00001937  C00001307  1
    X00001937  C00001554  1
    X00001938  C00000475  1
    X00001938  C00001308  1
    X00001938  C00001554  1
    X00001939  C00000482  1
    X00001939  C00001309  1
    X00001939  C00001554  1
    X00001940  C00000489  1
    X00001940  C00001310  1
    X00001940  C00001554  1
    X00001941  C00000496  1
    X00001941  C00001301  1
    X00001941  C00001555  -1
    X00001942  C00000503  1
    X00001942  C00001302  1
    X00001942  C00001555  1
    X00001943  C00000510  1
    X00001943  C00001303  1
    X00001943  C00001555  1
    X00001944  C00000517  1
    X00001944  C00001304  1
    X00001944  C00001555  1
    X00001945  C00000524  1
    X00001945  C00001305  1
    X00001945  C00001555  1
    X00001946  C00000531  1
    X00001946  C00001306  1
    X00001946  C00001555  1
    X00001947  C00000538  1
    X00001947  C00001307  1
    X00001947  C00001555  1
    X00001948  C00000545  1
    X00001948  C00001308  1
    X00001948  C00001555  1
    X00001949  C00000552  1
    X00001949  C00001309  1
    X00001949  C00001555  1
    X00001950  C00000559  1
    X00001950  C00001310  1
    X00001950  C00001555  1
    X00001951  C00000566  1
    X00001951  C00001301  1
    X00001951  C00001556  -1
    X00001952  C00000573  1
    X00001952  C00001302  1
    X00001952  C00001556  1
    X00001953  C00000580  1
    X00001953  C00001303  1
    X00001953  C00001556  1
    X00001954  C00000587  1
    X00001954  C00001304  1
    X00001954  C00001556  1
    X00001955  C00000594  1
    X00001955  C00001305  1
    X00001955  C00001556  1
    X00001956  C00000601  1
    X00001956  C00001306  1
    X00001956  C00001556  1
    X00001957  C00000608  1
    X00001957  C00001307  1
    X00001957  C00001556  1
    X00001958  C00000615  1
    X00001958  C00001308  1
    X00001958  C00001556  1
    X00001959  C00000622  1
    X00001959  C00001309  1
    X00001959  C00001556  1
    X00001960  C00000629  1
    X00001960  C00001310  1
    X00001960  C00001556  1
    X00001961  C00000636  1
    X00001961  C00001301  1
    X00001961  C00001557  -1
    X00001962  C00000643  1
    X00001962  C00001302  1
    X00001962  C00001557  1
    X00001963  C00000650  1
    X00001963  C00001303  1
    X00001963  C00001557  1
    X00001964  C00000657  1
    X00001964  C00001304  1
    X00001964  C00001557  1
    X00001965  C00000664  1
    X00001965  C00001305  1
    X00001965  C00001557  1
    X00001966  C00000671  1
    X00001966  C00001306  1
    X00001966  C00001557  1
    X00001967  C00000678  1
    X00001967  C00001307  1
    X00001967  C00001557  1
    X00001968  C00000685  1
    X00001968  C00001308  1
    X00001968  C00001557  1
    X00001969  C00000692  1
    X00001969  C00001309  1
    X00001969  C00001557  1
    X00001970  C00000699  1
    X00001970  C00001310  1
    X00001970  C00001557  1
    X00001971  C00000706  1
    X00001971  C00001301  1
    X00001971  C00001558  -1
    X00001972  C00000713  1
    X00001972  C00001302  1
    X00001972  C00001558  1
    X00001973  C00000720  1
    X00001973  C00001303  1
    X00001973  C00001558  1
    X00001974  C00000727  1
    X00001974  C00001304  1
    X00001974  C00001558  1
    X00001975  C00000734  1
    X00001975  C00001305  1
    X00001975  C00001558  1
    X00001976  C00000741  1
    X00001976  C00001306  1
    X00001976  C00001558  1
    X00001977  C00000748  1
    X00001977  C00001307  1
    X00001977  C00001558  1
    X00001978  C00000755  1
    X00001978  C00001308  1
    X00001978  C00001558  1
    X00001979  C00000762  1
    X00001979  C00001309  1
    X00001979  C00001558  1
    X00001980  C00000769  1
    X00001980  C00001310  1
    X00001980  C00001558  1
    X00001981  C00000776  1
    X00001981  C00001301  1
    X00001981  C00001559  -1
    X00001982  C00000783  1
    X00001982  C00001302  1
    X00001982  C00001559  1
    X00001983  C00000790  1
    X00001983  C00001303  1
    X00001983  C00001559  1
    X00001984  C00000797  1
    X00001984  C00001304  1
    X00001984  C00001559  1
    X00001985  C00000804  1
    X00001985  C00001305  1
    X00001985  C00001559  1
    X00001986  C00000811  1
    X00001986  C00001306  1
    X00001986  C00001559  1
    X00001987  C00000818  1
    X00001987  C00001307  1
    X00001987  C00001559  1
    X00001988  C00000825  1
    X00001988  C00001308  1
    X00001988  C00001559  1
    X00001989  C00000832  1
    X00001989  C00001309  1
    X00001989  C00001559  1
    X00001990  C00000839  1
    X00001990  C00001310  1
    X00001990  C00001559  1
    X00001991  C00000846  1
    X00001991  C00001301  1
    X00001991  C00001560  -1
    X00001992  C00000853  1
    X00001992  C00001302  1
    X00001992  C00001560  1
    X00001993  C00000860  1
    X00001993  C00001303  1
    X00001993  C00001560  1
    X00001994  C00000867  1
    X00001994  C00001304  1
    X00001994  C00001560  1
    X00001995  C00000874  1
    X00001995  C00001305  1
    X00001995  C00001560  1
    X00001996  C00000881  1
    X00001996  C00001306  1
    X00001996  C00001560  1
    X00001997  C00000888  1
    X00001997  C00001307  1
    X00001997  C00001560  1
    X00001998  C00000895  1
    X00001998  C00001308  1
    X00001998  C00001560  1
    X00001999  C00000902  1
    X00001999  C00001309  1
    X00001999  C00001560  1
    X00002000  C00000909  1
    X00002000  C00001310  1
    X00002000  C00001560  1
    X00002001  C00000916  1
    X00002001  C00001301  1
    X00002001  C00001561  -1
    X00002002  C00000923  1
    X00002002  C00001302  1
    X00002002  C00001561  1
    X00002003  C00000930  1
    X00002003  C00001303  1
    X00002003  C00001561  1
    X00002004  C00000937  1
    X00002004  C00001304  1
    X00002004  C00001561  1
    X00002005  C00000944  1
    X00002005  C00001305  1
    X00002005  C00001561  1
    X00002006  C00000951  1
    X00002006  C00001306  1
    X00002006  C00001561  1
    X00002007  C00000958  1
    X00002007  C00001307  1
    X00002007  C00001561  1
    X00002008  C00000965  1
    X00002008  C00001308  1
    X00002008  C00001561  1
    X00002009  C00000972  1
    X00002009  C00001309  1
    X00002009  C00001561  1
    X00002010  C00000979  1
    X00002010  C00001310  1
    X00002010  C00001561  1
    X00002011  C00000986  1
    X00002011  C00001301  1
    X00002011  C00001562  -1
    X00002012  C00000993  1
    X00002012  C00001302  1
    X00002012  C00001562  1
    X00002013  C00001000  1
    X00002013  C00001303  1
    X00002013  C00001562  1
    X00002014  C00001007  1
    X00002014  C00001304  1
    X00002014  C00001562  1
    X00002015  C00001014  1
    X00002015  C00001305  1
    X00002015  C00001562  1
    X00002016  C00001021  1
    X00002016  C00001306  1
    X00002016  C00001562  1
    X00002017  C00001028  1
    X00002017  C00001307  1
    X00002017  C00001562  1
    X00002018  C00001035  1
    X00002018  C00001308  1
    X00002018  C00001562  1
    X00002019  C00001042  1
    X00002019  C00001309  1
    X00002019  C00001562  1
    X00002020  C00001049  1
    X00002020  C00001310  1
    X00002020  C00001562  1
    X00002021  C00001056  1
    X00002021  C00001301  1
    X00002021  C00001563  -1
    X00002022  C00001063  1
    X00002022  C00001302  1
    X00002022  C00001563  1
    X00002023  C00001070  1
    X00002023  C00001303  1
    X00002023  C00001563  1
    X00002024  C00001077  1
    X00002024  C00001304  1
    X00002024  C00001563  1
    X00002025  C00001084  1
    X00002025  C00001305  1
    X00002025  C00001563  1
    X00002026  C00001091  1
    X00002026  C00001306  1
    X00002026  C00001563  1
    X00002027  C00001098  1
    X00002027  C00001307  1
    X00002027  C00001563  1
    X00002028  C00001105  1
    X00002028  C00001308  1
    X00002028  C00001563  1
    X00002029  C00001112  1
    X00002029  C00001309  1
    X00002029  C00001563  1
    X00002030  C00001119  1
    X00002030  C00001310  1
    X00002030  C00001563  1
    X00002031  C00001126  1
    X00002031  C00001301  1
    X00002031  C00001564  -1
    X00002032  C00001133  1
    X00002032  C00001302  1
    X00002032  C00001564  1
    X00002033  C00001140  1
    X00002033  C00001303  1
    X00002033  C00001564  1
    X00002034  C00001147  1
    X00002034  C00001304  1
    X00002034  C00001564  1
    X00002035  C00001154  1
    X00002035  C00001305  1
    X00002035  C00001564  1
    X00002036  C00001161  1
    X00002036  C00001306  1
    X00002036  C00001564  1
    X00002037  C00001168  1
    X00002037  C00001307  1
    X00002037  C00001564  1
    X00002038  C00001175  1
    X00002038  C00001308  1
    X00002038  C00001564  1
    X00002039  C00001182  1
    X00002039  C00001309  1
    X00002039  C00001564  1
    X00002040  C00001189  1
    X00002040  C00001310  1
    X00002040  C00001564  1
    X00002041  C00000005  1
    X00002041  C00001311  -1
    X00002041  C00001565  -1
    X00002042  C00000012  1
    X00002042  C00001312  -1
    X00002042  C00001565  1
    X00002043  C00000019  1
    X00002043  C00001313  -1
    X00002043  C00001565  1
    X00002044  C00000026  1
    X00002044  C00001314  -1
    X00002044  C00001565  1
    X00002045  C00000033  1
    X00002045  C00001315  -1
    X00002045  C00001565  1
    X00002046  C00000040  1
    X00002046  C00001316  -1
    X00002046  C00001565  1
    X00002047  C00000047  1
    X00002047  C00001317  -1
    X00002047  C00001565  1
    X00002048  C00000054  1
    X00002048  C00001318  -1
    X00002048  C00001565  1
    X00002049  C00000061  1
    X00002049  C00001319  -1
    X00002049  C00001565  1
    X00002050  C00000068  1
    X00002050  C00001320  -1
    X00002050  C00001565  1
    X00002051  C00000075  1
    X00002051  C00001311  1
    X00002051  C00001566  -1
    X00002052  C00000082  1
    X00002052  C00001312  1
    X00002052  C00001566  1
    X00002053  C00000089  1
    X00002053  C00001313  1
    X00002053  C00001566  1
    X00002054  C00000096  1
    X00002054  C00001314  1
    X00002054  C00001566  1
    X00002055  C00000103  1
    X00002055  C00001315  1
    X00002055  C00001566  1
    X00002056  C00000110  1
    X00002056  C00001316  1
    X00002056  C00001566  1
    X00002057  C00000117  1
    X00002057  C00001317  1
    X00002057  C00001566  1
    X00002058  C00000124  1
    X00002058  C00001318  1
    X00002058  C00001566  1
    X00002059  C00000131  1
    X00002059  C00001319  1
    X00002059  C00001566  1
    X00002060  C00000138  1
    X00002060  C00001320  1
    X00002060  C00001566  1
    X00002061  C00000145  1
    X00002061  C00001311  1
    X00002061  C00001567  -1
    X00002062  C00000152  1
    X00002062  C00001312  1
    X00002062  C00001567  1
    X00002063  C00000159  1
    X00002063  C00001313  1
    X00002063  C00001567  1
    X00002064  C00000166  1
    X00002064  C00001314  1
    X00002064  C00001567  1
    X00002065  C00000173  1
    X00002065  C00001315  1
    X00002065  C00001567  1
    X00002066  C00000180  1
    X00002066  C00001316  1
    X00002066  C00001567  1
    X00002067  C00000187  1
    X00002067  C00001317  1
    X00002067  C00001567  1
    X00002068  C00000194  1
    X00002068  C00001318  1
    X00002068  C00001567  1
    X00002069  C00000201  1
    X00002069  C00001319  1
    X00002069  C00001567  1
    X00002070  C00000208  1
    X00002070  C00001320  1
    X00002070  C00001567  1
    X00002071  C00000215  1
    X00002071  C00001311  1
    X00002071  C00001568  -1
    X00002072  C00000222  1
    X00002072  C00001312  1
    X00002072  C00001568  1
    X00002073  C00000229  1
    X00002073  C00001313  1
    X00002073  C00001568  1
    X00002074  C00000236  1
    X00002074  C00001314  1
    X00002074  C00001568  1
    X00002075  C00000243  1
    X00002075  C00001315  1
    X00002075  C00001568  1
    X00002076  C00000250  1
    X00002076  C00001316  1
    X00002076  C00001568  1
    X00002077  C00000257  1
    X00002077  C00001317  1
    X00002077  C00001568  1
    X00002078  C00000264  1
    X00002078  C00001318  1
    X00002078  C00001568  1
    X00002079  C00000271  1
    X00002079  C00001319  1
    X00002079  C00001568  1
    X00002080  C00000278  1
    X00002080  C00001320  1
    X00002080  C00001568  1
    X00002081  C00000285  1
    X00002081  C00001311  1
    X00002081  C00001569  -1
    X00002082  C00000292  1
    X00002082  C00001312  1
    X00002082  C00001569  1
    X00002083  C00000299  1
    X00002083  C00001313  1
    X00002083  C00001569  1
    X00002084  C00000306  1
    X00002084  C00001314  1
    X00002084  C00001569  1
    X00002085  C00000313  1
    X00002085  C00001315  1
    X00002085  C00001569  1
    X00002086  C00000320  1
    X00002086  C00001316  1
    X00002086  C00001569  1
    X00002087  C00000327  1
    X00002087  C00001317  1
    X00002087  C00001569  1
    X00002088  C00000334  1
    X00002088  C00001318  1
    X00002088  C00001569  1
    X00002089  C00000341  1
    X00002089  C00001319  1
    X00002089  C00001569  1
    X00002090  C00000348  1
    X00002090  C00001320  1
    X00002090  C00001569  1
    X00002091  C00000355  1
    X00002091  C00001311  1
    X00002091  C00001570  -1
    X00002092  C00000362  1
    X00002092  C00001312  1
    X00002092  C00001570  1
    X00002093  C00000369  1
    X00002093  C00001313  1
    X00002093  C00001570  1
    X00002094  C00000376  1
    X00002094  C00001314  1
    X00002094  C00001570  1
    X00002095  C00000383  1
    X00002095  C00001315  1
    X00002095  C00001570  1
    X00002096  C00000390  1
    X00002096  C00001316  1
    X00002096  C00001570  1
    X00002097  C00000397  1
    X00002097  C00001317  1
    X00002097  C00001570  1
    X00002098  C00000404  1
    X00002098  C00001318  1
    X00002098  C00001570  1
    X00002099  C00000411  1
    X00002099  C00001319  1
    X00002099  C00001570  1
    X00002100  C00000418  1
    X00002100  C00001320  1
    X00002100  C00001570  1
    X00002101  C00000425  1
    X00002101  C00001311  1
    X00002101  C00001571  -1
    X00002102  C00000432  1
    X00002102  C00001312  1
    X00002102  C00001571  1
    X00002103  C00000439  1
    X00002103  C00001313  1
    X00002103  C00001571  1
    X00002104  C00000446  1
    X00002104  C00001314  1
    X00002104  C00001571  1
    X00002105  C00000453  1
    X00002105  C00001315  1
    X00002105  C00001571  1
    X00002106  C00000460  1
    X00002106  C00001316  1
    X00002106  C00001571  1
    X00002107  C00000467  1
    X00002107  C00001317  1
    X00002107  C00001571  1
    X00002108  C00000474  1
    X00002108  C00001318  1
    X00002108  C00001571  1
    X00002109  C00000481  1
    X00002109  C00001319  1
    X00002109  C00001571  1
    X00002110  C00000488  1
    X00002110  C00001320  1
    X00002110  C00001571  1
    X00002111  C00000495  1
    X00002111  C00001311  1
    X00002111  C00001572  -1
    X00002112  C00000502  1
    X00002112  C00001312  1
    X00002112  C00001572  1
    X00002113  C00000509  1
    X00002113  C00001313  1
    X00002113  C00001572  1
    X00002114  C00000516  1
    X00002114  C00001314  1
    X00002114  C00001572  1
    X00002115  C00000523  1
    X00002115  C00001315  1
    X00002115  C00001572  1
    X00002116  C00000530  1
    X00002116  C00001316  1
    X00002116  C00001572  1
    X00002117  C00000537  1
    X00002117  C00001317  1
    X00002117  C00001572  1
    X00002118  C00000544  1
    X00002118  C00001318  1
    X00002118  C00001572  1
    X00002119  C00000551  1
    X00002119  C00001319  1
    X00002119  C00001572  1
    X00002120  C00000558  1
    X00002120  C00001320  1
    X00002120  C00001572  1
    X00002121  C00000565  1
    X00002121  C00001311  1
    X00002121  C00001573  -1
    X00002122  C00000572  1
    X00002122  C00001312  1
    X00002122  C00001573  1
    X00002123  C00000579  1
    X00002123  C00001313  1
    X00002123  C00001573  1
    X00002124  C00000586  1
    X00002124  C00001314  1
    X00002124  C00001573  1
    X00002125  C00000593  1
    X00002125  C00001315  1
    X00002125  C00001573  1
    X00002126  C00000600  1
    X00002126  C00001316  1
    X00002126  C00001573  1
    X00002127  C00000607  1
    X00002127  C00001317  1
    X00002127  C00001573  1
    X00002128  C00000614  1
    X00002128  C00001318  1
    X00002128  C00001573  1
    X00002129  C00000621  1
    X00002129  C00001319  1
    X00002129  C00001573  1
    X00002130  C00000628  1
    X00002130  C00001320  1
    X00002130  C00001573  1
    X00002131  C00000635  1
    X00002131  C00001311  1
    X00002131  C00001574  -1
    X00002132  C00000642  1
    X00002132  C00001312  1
    X00002132  C00001574  1
    X00002133  C00000649  1
    X00002133  C00001313  1
    X00002133  C00001574  1
    X00002134  C00000656  1
    X00002134  C00001314  1
    X00002134  C00001574  1
    X00002135  C00000663  1
    X00002135  C00001315  1
    X00002135  C00001574  1
    X00002136  C00000670  1
    X00002136  C00001316  1
    X00002136  C00001574  1
    X00002137  C00000677  1
    X00002137  C00001317  1
    X00002137  C00001574  1
    X00002138  C00000684  1
    X00002138  C00001318  1
    X00002138  C00001574  1
    X00002139  C00000691  1
    X00002139  C00001319  1
    X00002139  C00001574  1
    X00002140  C00000698  1
    X00002140  C00001320  1
    X00002140  C00001574  1
    X00002141  C00000705  1
    X00002141  C00001311  1
    X00002141  C00001575  -1
    X00002142  C00000712  1
    X00002142  C00001312  1
    X00002142  C00001575  1
    X00002143  C00000719  1
    X00002143  C00001313  1
    X00002143  C00001575  1
    X00002144  C00000726  1
    X00002144  C00001314  1
    X00002144  C00001575  1
    X00002145  C00000733  1
    X00002145  C00001315  1
    X00002145  C00001575  1
    X00002146  C00000740  1
    X00002146  C00001316  1
    X00002146  C00001575  1
    X00002147  C00000747  1
    X00002147  C00001317  1
    X00002147  C00001575  1
    X00002148  C00000754  1
    X00002148  C00001318  1
    X00002148  C00001575  1
    X00002149  C00000761  1
    X00002149  C00001319  1
    X00002149  C00001575  1
    X00002150  C00000768  1
    X00002150  C00001320  1
    X00002150  C00001575  1
    X00002151  C00000775  1
    X00002151  C00001311  1
    X00002151  C00001576  -1
    X00002152  C00000782  1
    X00002152  C00001312  1
    X00002152  C00001576  1
    X00002153  C00000789  1
    X00002153  C00001313  1
    X00002153  C00001576  1
    X00002154  C00000796  1
    X00002154  C00001314  1
    X00002154  C00001576  1
    X00002155  C00000803  1
    X00002155  C00001315  1
    X00002155  C00001576  1
    X00002156  C00000810  1
    X00002156  C00001316  1
    X00002156  C00001576  1
    X00002157  C00000817  1
    X00002157  C00001317  1
    X00002157  C00001576  1
    X00002158  C00000824  1
    X00002158  C00001318  1
    X00002158  C00001576  1
    X00002159  C00000831  1
    X00002159  C00001319  1
    X00002159  C00001576  1
    X00002160  C00000838  1
    X00002160  C00001320  1
    X00002160  C00001576  1
    X00002161  C00000845  1
    X00002161  C00001311  1
    X00002161  C00001577  -1
    X00002162  C00000852  1
    X00002162  C00001312  1
    X00002162  C00001577  1
    X00002163  C00000859  1
    X00002163  C00001313  1
    X00002163  C00001577  1
    X00002164  C00000866  1
    X00002164  C00001314  1
    X00002164  C00001577  1
    X00002165  C00000873  1
    X00002165  C00001315  1
    X00002165  C00001577  1
    X00002166  C00000880  1
    X00002166  C00001316  1
    X00002166  C00001577  1
    X00002167  C00000887  1
    X00002167  C00001317  1
    X00002167  C00001577  1
    X00002168  C00000894  1
    X00002168  C00001318  1
    X00002168  C00001577  1
    X00002169  C00000901  1
    X00002169  C00001319  1
    X00002169  C00001577  1
    X00002170  C00000908  1
    X00002170  C00001320  1
    X00002170  C00001577  1
    X00002171  C00000915  1
    X00002171  C00001311  1
    X00002171  C00001578  -1
    X00002172  C00000922  1
    X00002172  C00001312  1
    X00002172  C00001578  1
    X00002173  C00000929  1
    X00002173  C00001313  1
    X00002173  C00001578  1
    X00002174  C00000936  1
    X00002174  C00001314  1
    X00002174  C00001578  1
    X00002175  C00000943  1
    X00002175  C00001315  1
    X00002175  C00001578  1
    X00002176  C00000950  1
    X00002176  C00001316  1
    X00002176  C00001578  1
    X00002177  C00000957  1
    X00002177  C00001317  1
    X00002177  C00001578  1
    X00002178  C00000964  1
    X00002178  C00001318  1
    X00002178  C00001578  1
    X00002179  C00000971  1
    X00002179  C00001319  1
    X00002179  C00001578  1
    X00002180  C00000978  1
    X00002180  C00001320  1
    X00002180  C00001578  1
    X00002181  C00000985  1
    X00002181  C00001311  1
    X00002181  C00001579  -1
    X00002182  C00000992  1
    X00002182  C00001312  1
    X00002182  C00001579  1
    X00002183  C00000999  1
    X00002183  C00001313  1
    X00002183  C00001579  1
    X00002184  C00001006  1
    X00002184  C00001314  1
    X00002184  C00001579  1
    X00002185  C00001013  1
    X00002185  C00001315  1
    X00002185  C00001579  1
    X00002186  C00001020  1
    X00002186  C00001316  1
    X00002186  C00001579  1
    X00002187  C00001027  1
    X00002187  C00001317  1
    X00002187  C00001579  1
    X00002188  C00001034  1
    X00002188  C00001318  1
    X00002188  C00001579  1
    X00002189  C00001041  1
    X00002189  C00001319  1
    X00002189  C00001579  1
    X00002190  C00001048  1
    X00002190  C00001320  1
    X00002190  C00001579  1
    X00002191  C00001055  1
    X00002191  C00001311  1
    X00002191  C00001580  -1
    X00002192  C00001062  1
    X00002192  C00001312  1
    X00002192  C00001580  1
    X00002193  C00001069  1
    X00002193  C00001313  1
    X00002193  C00001580  1
    X00002194  C00001076  1
    X00002194  C00001314  1
    X00002194  C00001580  1
    X00002195  C00001083  1
    X00002195  C00001315  1
    X00002195  C00001580  1
    X00002196  C00001090  1
    X00002196  C00001316  1
    X00002196  C00001580  1
    X00002197  C00001097  1
    X00002197  C00001317  1
    X00002197  C00001580  1
    X00002198  C00001104  1
    X00002198  C00001318  1
    X00002198  C00001580  1
    X00002199  C00001111  1
    X00002199  C00001319  1
    X00002199  C00001580  1
    X00002200  C00001118  1
    X00002200  C00001320  1
    X00002200  C00001580  1
    X00002201  C00001125  1
    X00002201  C00001311  1
    X00002201  C00001581  -1
    X00002202  C00001132  1
    X00002202  C00001312  1
    X00002202  C00001581  1
    X00002203  C00001139  1
    X00002203  C00001313  1
    X00002203  C00001581  1
    X00002204  C00001146  1
    X00002204  C00001314  1
    X00002204  C00001581  1
    X00002205  C00001153  1
    X00002205  C00001315  1
    X00002205  C00001581  1
    X00002206  C00001160  1
    X00002206  C00001316  1
    X00002206  C00001581  1
    X00002207  C00001167  1
    X00002207  C00001317  1
    X00002207  C00001581  1
    X00002208  C00001174  1
    X00002208  C00001318  1
    X00002208  C00001581  1
    X00002209  C00001181  1
    X00002209  C00001319  1
    X00002209  C00001581  1
    X00002210  C00001188  1
    X00002210  C00001320  1
    X00002210  C00001581  1
    X00002211  C00000004  1
    X00002211  C00000007  -1
    X00002211  C00001321  -1
    X00002211  C00001582  -1
    X00002212  C00000011  1
    X00002212  C00000014  -1
    X00002212  C00001322  -1
    X00002212  C00001582  1
    X00002213  C00000018  1
    X00002213  C00000021  -1
    X00002213  C00001323  -1
    X00002213  C00001582  1
    X00002214  C00000025  1
    X00002214  C00000028  -1
    X00002214  C00001324  -1
    X00002214  C00001582  1
    X00002215  C00000032  1
    X00002215  C00000035  -1
    X00002215  C00001325  -1
    X00002215  C00001582  1
    X00002216  C00000039  1
    X00002216  C00000042  -1
    X00002216  C00001326  -1
    X00002216  C00001582  1
    X00002217  C00000046  1
    X00002217  C00000049  -1
    X00002217  C00001327  -1
    X00002217  C00001582  1
    X00002218  C00000053  1
    X00002218  C00000056  -1
    X00002218  C00001328  -1
    X00002218  C00001582  1
    X00002219  C00000060  1
    X00002219  C00000063  -1
    X00002219  C00001329  -1
    X00002219  C00001582  1
    X00002220  C00000067  1
    X00002220  C00000070  -1
    X00002220  C00001330  -1
    X00002220  C00001582  1
    X00002221  C00000074  1
    X00002221  C00000077  -1
    X00002221  C00001321  1
    X00002221  C00001583  -1
    X00002222  C00000081  1
    X00002222  C00000084  -1
    X00002222  C00001322  1
    X00002222  C00001583  1
    X00002223  C00000088  1
    X00002223  C00000091  -1
    X00002223  C00001323  1
    X00002223  C00001583  1
    X00002224  C00000095  1
    X00002224  C00000098  -1
    X00002224  C00001324  1
    X00002224  C00001583  1
    X00002225  C00000102  1
    X00002225  C00000105  -1
    X00002225  C00001325  1
    X00002225  C00001583  1
    X00002226  C00000109  1
    X00002226  C00000112  -1
    X00002226  C00001326  1
    X00002226  C00001583  1
    X00002227  C00000116  1
    X00002227  C00000119  -1
    X00002227  C00001327  1
    X00002227  C00001583  1
    X00002228  C00000123  1
    X00002228  C00000126  -1
    X00002228  C00001328  1
    X00002228  C00001583  1
    X00002229  C00000130  1
    X00002229  C00000133  -1
    X00002229  C00001329  1
    X00002229  C00001583  1
    X00002230  C00000137  1
    X00002230  C00000140  -1
    X00002230  C00001330  1
    X00002230  C00001583  1
    X00002231  C00000144  1
    X00002231  C00000147  -1
    X00002231  C00001321  1
    X00002231  C00001584  -1
    X00002232  C00000151  1
    X00002232  C00000154  -1
    X00002232  C00001322  1
    X00002232  C00001584  1
    X00002233  C00000158  1
    X00002233  C00000161  -1
    X00002233  C00001323  1
    X00002233  C00001584  1
    X00002234  C00000165  1
    X00002234  C00000168  -1
    X00002234  C00001324  1
    X00002234  C00001584  1
    X00002235  C00000172  1
    X00002235  C00000175  -1
    X00002235  C00001325  1
    X00002235  C00001584  1
    X00002236  C00000179  1
    X00002236  C00000182  -1
    X00002236  C00001326  1
    X00002236  C00001584  1
    X00002237  C00000186  1
    X00002237  C00000189  -1
    X00002237  C00001327  1
    X00002237  C00001584  1
    X00002238  C00000193  1
    X00002238  C00000196  -1
    X00002238  C00001328  1
    X00002238  C00001584  1
    X00002239  C00000200  1
    X00002239  C00000203  -1
    X00002239  C00001329  1
    X00002239  C00001584  1
    X00002240  C00000207  1
    X00002240  C00000210  -1
    X00002240  C00001330  1
    X00002240  C00001584  1
    X00002241  C00000214  1
    X00002241  C00000217  -1
    X00002241  C00001321  1
    X00002241  C00001585  -1
    X00002242  C00000221  1
    X00002242  C00000224  -1
    X00002242  C00001322  1
    X00002242  C00001585  1
    X00002243  C00000228  1
    X00002243  C00000231  -1
    X00002243  C00001323  1
    X00002243  C00001585  1
    X00002244  C00000235  1
    X00002244  C00000238  -1
    X00002244  C00001324  1
    X00002244  C00001585  1
    X00002245  C00000242  1
    X00002245  C00000245  -1
    X00002245  C00001325  1
    X00002245  C00001585  1
    X00002246  C00000249  1
    X00002246  C00000252  -1
    X00002246  C00001326  1
    X00002246  C00001585  1
    X00002247  C00000256  1
    X00002247  C00000259  -1
    X00002247  C00001327  1
    X00002247  C00001585  1
    X00002248  C00000263  1
    X00002248  C00000266  -1
    X00002248  C00001328  1
    X00002248  C00001585  1
    X00002249  C00000270  1
    X00002249  C00000273  -1
    X00002249  C00001329  1
    X00002249  C00001585  1
    X00002250  C00000277  1
    X00002250  C00000280  -1
    X00002250  C00001330  1
    X00002250  C00001585  1
    X00002251  C00000284  1
    X00002251  C00000287  -1
    X00002251  C00001321  1
    X00002251  C00001586  -1
    X00002252  C00000291  1
    X00002252  C00000294  -1
    X00002252  C00001322  1
    X00002252  C00001586  1
    X00002253  C00000298  1
    X00002253  C00000301  -1
    X00002253  C00001323  1
    X00002253  C00001586  1
    X00002254  C00000305  1
    X00002254  C00000308  -1
    X00002254  C00001324  1
    X00002254  C00001586  1
    X00002255  C00000312  1
    X00002255  C00000315  -1
    X00002255  C00001325  1
    X00002255  C00001586  1
    X00002256  C00000319  1
    X00002256  C00000322  -1
    X00002256  C00001326  1
    X00002256  C00001586  1
    X00002257  C00000326  1
    X00002257  C00000329  -1
    X00002257  C00001327  1
    X00002257  C00001586  1
    X00002258  C00000333  1
    X00002258  C00000336  -1
    X00002258  C00001328  1
    X00002258  C00001586  1
    X00002259  C00000340  1
    X00002259  C00000343  -1
    X00002259  C00001329  1
    X00002259  C00001586  1
    X00002260  C00000347  1
    X00002260  C00000350  -1
    X00002260  C00001330  1
    X00002260  C00001586  1
    X00002261  C00000354  1
    X00002261  C00000357  -1
    X00002261  C00001321  1
    X00002261  C00001587  -1
    X00002262  C00000361  1
    X00002262  C00000364  -1
    X00002262  C00001322  1
    X00002262  C00001587  1
    X00002263  C00000368  1
    X00002263  C00000371  -1
    X00002263  C00001323  1
    X00002263  C00001587  1
    X00002264  C00000375  1
    X00002264  C00000378  -1
    X00002264  C00001324  1
    X00002264  C00001587  1
    X00002265  C00000382  1
    X00002265  C00000385  -1
    X00002265  C00001325  1
    X00002265  C00001587  1
    X00002266  C00000389  1
    X00002266  C00000392  -1
    X00002266  C00001326  1
    X00002266  C00001587  1
    X00002267  C00000396  1
    X00002267  C00000399  -1
    X00002267  C00001327  1
    X00002267  C00001587  1
    X00002268  C00000403  1
    X00002268  C00000406  -1
    X00002268  C00001328  1
    X00002268  C00001587  1
    X00002269  C00000410  1
    X00002269  C00000413  -1
    X00002269  C00001329  1
    X00002269  C00001587  1
    X00002270  C00000417  1
    X00002270  C00000420  -1
    X00002270  C00001330  1
    X00002270  C00001587  1
    X00002271  C00000424  1
    X00002271  C00000427  -1
    X00002271  C00001321  1
    X00002271  C00001588  -1
    X00002272  C00000431  1
    X00002272  C00000434  -1
    X00002272  C00001322  1
    X00002272  C00001588  1
    X00002273  C00000438  1
    X00002273  C00000441  -1
    X00002273  C00001323  1
    X00002273  C00001588  1
    X00002274  C00000445  1
    X00002274  C00000448  -1
    X00002274  C00001324  1
    X00002274  C00001588  1
    X00002275  C00000452  1
    X00002275  C00000455  -1
    X00002275  C00001325  1
    X00002275  C00001588  1
    X00002276  C00000459  1
    X00002276  C00000462  -1
    X00002276  C00001326  1
    X00002276  C00001588  1
    X00002277  C00000466  1
    X00002277  C00000469  -1
    X00002277  C00001327  1
    X00002277  C00001588  1
    X00002278  C00000473  1
    X00002278  C00000476  -1
    X00002278  C00001328  1
    X00002278  C00001588  1
    X00002279  C00000480  1
    X00002279  C00000483  -1
    X00002279  C00001329  1
    X00002279  C00001588  1
    X00002280  C00000487  1
    X00002280  C00000490  -1
    X00002280  C00001330  1
    X00002280  C00001588  1
    X00002281  C00000494  1
    X00002281  C00000497  -1
    X00002281  C00001321  1
    X00002281  C00001589  -1
    X00002282  C00000501  1
    X00002282  C00000504  -1
    X00002282  C00001322  1
    X00002282  C00001589  1
    X00002283  C00000508  1
    X00002283  C00000511  -1
    X00002283  C00001323  1
    X00002283  C00001589  1
    X00002284  C00000515  1
    X00002284  C00000518  -1
    X00002284  C00001324  1
    X00002284  C00001589  1
    X00002285  C00000522  1
    X00002285  C00000525  -1
    X00002285  C00001325  1
    X00002285  C00001589  1
    X00002286  C00000529  1
    X00002286  C00000532  -1
    X00002286  C00001326  1
    X00002286  C00001589  1
    X00002287  C00000536  1
    X00002287  C00000539  -1
    X00002287  C00001327  1
    X00002287  C00001589  1
    X00002288  C00000543  1
    X00002288  C00000546  -1
    X00002288  C00001328  1
    X00002288  C00001589  1
    X00002289  C00000550  1
    X00002289  C00000553  -1
    X00002289  C00001329  1
    X00002289  C00001589  1
    X00002290  C00000557  1
    X00002290  C00000560  -1
    X00002290  C00001330  1
    X00002290  C00001589  1
    X00002291  C00000564  1
    X00002291  C00000567  -1
    X00002291  C00001321  1
    X00002291  C00001590  -1
    X00002292  C00000571  1
    X00002292  C00000574  -1
    X00002292  C00001322  1
    X00002292  C00001590  1
    X00002293  C00000578  1
    X00002293  C00000581  -1
    X00002293  C00001323  1
    X00002293  C00001590  1
    X00002294  C00000585  1
    X00002294  C00000588  -1
    X00002294  C00001324  1
    X00002294  C00001590  1
    X00002295  C00000592  1
    X00002295  C00000595  -1
    X00002295  C00001325  1
    X00002295  C00001590  1
    X00002296  C00000599  1
    X00002296  C00000602  -1
    X00002296  C00001326  1
    X00002296  C00001590  1
    X00002297  C00000606  1
    X00002297  C00000609  -1
    X00002297  C00001327  1
    X00002297  C00001590  1
    X00002298  C00000613  1
    X00002298  C00000616  -1
    X00002298  C00001328  1
    X00002298  C00001590  1
    X00002299  C00000620  1
    X00002299  C00000623  -1
    X00002299  C00001329  1
    X00002299  C00001590  1
    X00002300  C00000627  1
    X00002300  C00000630  -1
    X00002300  C00001330  1
    X00002300  C00001590  1
    X00002301  C00000634  1
    X00002301  C00000637  -1
    X00002301  C00001321  1
    X00002301  C00001591  -1
    X00002302  C00000641  1
    X00002302  C00000644  -1
    X00002302  C00001322  1
    X00002302  C00001591  1
    X00002303  C00000648  1
    X00002303  C00000651  -1
    X00002303  C00001323  1
    X00002303  C00001591  1
    X00002304  C00000655  1
    X00002304  C00000658  -1
    X00002304  C00001324  1
    X00002304  C00001591  1
    X00002305  C00000662  1
    X00002305  C00000665  -1
    X00002305  C00001325  1
    X00002305  C00001591  1
    X00002306  C00000669  1
    X00002306  C00000672  -1
    X00002306  C00001326  1
    X00002306  C00001591  1
    X00002307  C00000676  1
    X00002307  C00000679  -1
    X00002307  C00001327  1
    X00002307  C00001591  1
    X00002308  C00000683  1
    X00002308  C00000686  -1
    X00002308  C00001328  1
    X00002308  C00001591  1
    X00002309  C00000690  1
    X00002309  C00000693  -1
    X00002309  C00001329  1
    X00002309  C00001591  1
    X00002310  C00000697  1
    X00002310  C00000700  -1
    X00002310  C00001330  1
    X00002310  C00001591  1
    X00002311  C00000704  1
    X00002311  C00000707  -1
    X00002311  C00001321  1
    X00002311  C00001592  -1
    X00002312  C00000711  1
    X00002312  C00000714  -1
    X00002312  C00001322  1
    X00002312  C00001592  1
    X00002313  C00000718  1
    X00002313  C00000721  -1
    X00002313  C00001323  1
    X00002313  C00001592  1
    X00002314  C00000725  1
    X00002314  C00000728  -1
    X00002314  C00001324  1
    X00002314  C00001592  1
    X00002315  C00000732  1
    X00002315  C00000735  -1
    X00002315  C00001325  1
    X00002315  C00001592  1
    X00002316  C00000739  1
    X00002316  C00000742  -1
    X00002316  C00001326  1
    X00002316  C00001592  1
    X00002317  C00000746  1
    X00002317  C00000749  -1
    X00002317  C00001327  1
    X00002317  C00001592  1
    X00002318  C00000753  1
    X00002318  C00000756  -1
    X00002318  C00001328  1
    X00002318  C00001592  1
    X00002319  C00000760  1
    X00002319  C00000763  -1
    X00002319  C00001329  1
    X00002319  C00001592  1
    X00002320  C00000767  1
    X00002320  C00000770  -1
    X00002320  C00001330  1
    X00002320  C00001592  1
    X00002321  C00000774  1
    X00002321  C00000777  -1
    X00002321  C00001321  1
    X00002321  C00001593  -1
    X00002322  C00000781  1
    X00002322  C00000784  -1
    X00002322  C00001322  1
    X00002322  C00001593  1
    X00002323  C00000788  1
    X00002323  C00000791  -1
    X00002323  C00001323  1
    X00002323  C00001593  1
    X00002324  C00000795  1
    X00002324  C00000798  -1
    X00002324  C00001324  1
    X00002324  C00001593  1
    X00002325  C00000802  1
    X00002325  C00000805  -1
    X00002325  C00001325  1
    X00002325  C00001593  1
    X00002326  C00000809  1
    X00002326  C00000812  -1
    X00002326  C00001326  1
    X00002326  C00001593  1
    X00002327  C00000816  1
    X00002327  C00000819  -1
    X00002327  C00001327  1
    X00002327  C00001593  1
    X00002328  C00000823  1
    X00002328  C00000826  -1
    X00002328  C00001328  1
    X00002328  C00001593  1
    X00002329  C00000830  1
    X00002329  C00000833  -1
    X00002329  C00001329  1
    X00002329  C00001593  1
    X00002330  C00000837  1
    X00002330  C00000840  -1
    X00002330  C00001330  1
    X00002330  C00001593  1
    X00002331  C00000844  1
    X00002331  C00000847  -1
    X00002331  C00001321  1
    X00002331  C00001594  -1
    X00002332  C00000851  1
    X00002332  C00000854  -1
    X00002332  C00001322  1
    X00002332  C00001594  1
    X00002333  C00000858  1
    X00002333  C00000861  -1
    X00002333  C00001323  1
    X00002333  C00001594  1
    X00002334  C00000865  1
    X00002334  C00000868  -1
    X00002334  C00001324  1
    X00002334  C00001594  1
    X00002335  C00000872  1
    X00002335  C00000875  -1
    X00002335  C00001325  1
    X00002335  C00001594  1
    X00002336  C00000879  1
    X00002336  C00000882  -1
    X00002336  C00001326  1
    X00002336  C00001594  1
    X00002337  C00000886  1
    X00002337  C00000889  -1
    X00002337  C00001327  1
    X00002337  C00001594  1
    X00002338  C00000893  1
    X00002338  C00000896  -1
    X00002338  C00001328  1
    X00002338  C00001594  1
    X00002339  C00000900  1
    X00002339  C00000903  -1
    X00002339  C00001329  1
    X00002339  C00001594  1
    X00002340  C00000907  1
    X00002340  C00000910  -1
    X00002340  C00001330  1
    X00002340  C00001594  1
    X00002341  C00000914  1
    X00002341  C00000917  -1
    X00002341  C00001321  1
    X00002341  C00001595  -1
    X00002342  C00000921  1
    X00002342  C00000924  -1
    X00002342  C00001322  1
    X00002342  C00001595  1
    X00002343  C00000928  1
    X00002343  C00000931  -1
    X00002343  C00001323  1
    X00002343  C00001595  1
    X00002344  C00000935  1
    X00002344  C00000938  -1
    X00002344  C00001324  1
    X00002344  C00001595  1
    X00002345  C00000942  1
    X00002345  C00000945  -1
    X00002345  C00001325  1
    X00002345  C00001595  1
    X00002346  C00000949  1
    X00002346  C00000952  -1
    X00002346  C00001326  1
    X00002346  C00001595  1
    X00002347  C00000956  1
    X00002347  C00000959  -1
    X00002347  C00001327  1
    X00002347  C00001595  1
    X00002348  C00000963  1
    X00002348  C00000966  -1
    X00002348  C00001328  1
    X00002348  C00001595  1
    X00002349  C00000970  1
    X00002349  C00000973  -1
    X00002349  C00001329  1
    X00002349  C00001595  1
    X00002350  C00000977  1
    X00002350  C00000980  -1
    X00002350  C00001330  1
    X00002350  C00001595  1
    X00002351  C00000984  1
    X00002351  C00000987  -1
    X00002351  C00001321  1
    X00002351  C00001596  -1
    X00002352  C00000991  1
    X00002352  C00000994  -1
    X00002352  C00001322  1
    X00002352  C00001596  1
    X00002353  C00000998  1
    X00002353  C00001001  -1
    X00002353  C00001323  1
    X00002353  C00001596  1
    X00002354  C00001005  1
    X00002354  C00001008  -1
    X00002354  C00001324  1
    X00002354  C00001596  1
    X00002355  C00001012  1
    X00002355  C00001015  -1
    X00002355  C00001325  1
    X00002355  C00001596  1
    X00002356  C00001019  1
    X00002356  C00001022  -1
    X00002356  C00001326  1
    X00002356  C00001596  1
    X00002357  C00001026  1
    X00002357  C00001029  -1
    X00002357  C00001327  1
    X00002357  C00001596  1
    X00002358  C00001033  1
    X00002358  C00001036  -1
    X00002358  C00001328  1
    X00002358  C00001596  1
    X00002359  C00001040  1
    X00002359  C00001043  -1
    X00002359  C00001329  1
    X00002359  C00001596  1
    X00002360  C00001047  1
    X00002360  C00001050  -1
    X00002360  C00001330  1
    X00002360  C00001596  1
    X00002361  C00001054  1
    X00002361  C00001057  -1
    X00002361  C00001321  1
    X00002361  C00001597  -1
    X00002362  C00001061  1
    X00002362  C00001064  -1
    X00002362  C00001322  1
    X00002362  C00001597  1
    X00002363  C00001068  1
    X00002363  C00001071  -1
    X00002363  C00001323  1
    X00002363  C00001597  1
    X00002364  C00001075  1
    X00002364  C00001078  -1
    X00002364  C00001324  1
    X00002364  C00001597  1
    X00002365  C00001082  1
    X00002365  C00001085  -1
    X00002365  C00001325  1
    X00002365  C00001597  1
    X00002366  C00001089  1
    X00002366  C00001092  -1
    X00002366  C00001326  1
    X00002366  C00001597  1
    X00002367  C00001096  1
    X00002367  C00001099  -1
    X00002367  C00001327  1
    X00002367  C00001597  1
    X00002368  C00001103  1
    X00002368  C00001106  -1
    X00002368  C00001328  1
    X00002368  C00001597  1
    X00002369  C00001110  1
    X00002369  C00001113  -1
    X00002369  C00001329  1
    X00002369  C00001597  1
    X00002370  C00001117  1
    X00002370  C00001120  -1
    X00002370  C00001330  1
    X00002370  C00001597  1
    X00002371  C00001124  1
    X00002371  C00001127  -1
    X00002371  C00001321  1
    X00002371  C00001598  -1
    X00002372  C00001131  1
    X00002372  C00001134  -1
    X00002372  C00001322  1
    X00002372  C00001598  1
    X00002373  C00001138  1
    X00002373  C00001141  -1
    X00002373  C00001323  1
    X00002373  C00001598  1
    X00002374  C00001145  1
    X00002374  C00001148  -1
    X00002374  C00001324  1
    X00002374  C00001598  1
    X00002375  C00001152  1
    X00002375  C00001155  -1
    X00002375  C00001325  1
    X00002375  C00001598  1
    X00002376  C00001159  1
    X00002376  C00001162  -1
    X00002376  C00001326  1
    X00002376  C00001598  1
    X00002377  C00001166  1
    X00002377  C00001169  -1
    X00002377  C00001327  1
    X00002377  C00001598  1
    X00002378  C00001173  1
    X00002378  C00001176  -1
    X00002378  C00001328  1
    X00002378  C00001598  1
    X00002379  C00001180  1
    X00002379  C00001183  -1
    X00002379  C00001329  1
    X00002379  C00001598  1
    X00002380  C00001187  1
    X00002380  C00001190  -1
    X00002380  C00001330  1
    X00002380  C00001598  1
    X00002381  C00000007  1
    X00002381  C00001331  -1
    X00002381  C00001599  -1
    X00002382  C00000014  1
    X00002382  C00001332  -1
    X00002382  C00001599  1
    X00002383  C00000021  1
    X00002383  C00001333  -1
    X00002383  C00001599  1
    X00002384  C00000028  1
    X00002384  C00001334  -1
    X00002384  C00001599  1
    X00002385  C00000035  1
    X00002385  C00001335  -1
    X00002385  C00001599  1
    X00002386  C00000042  1
    X00002386  C00001336  -1
    X00002386  C00001599  1
    X00002387  C00000049  1
    X00002387  C00001337  -1
    X00002387  C00001599  1
    X00002388  C00000056  1
    X00002388  C00001338  -1
    X00002388  C00001599  1
    X00002389  C00000063  1
    X00002389  C00001339  -1
    X00002389  C00001599  1
    X00002390  C00000070  1
    X00002390  C00001340  -1
    X00002390  C00001599  1
    X00002391  C00000077  1
    X00002391  C00001331  1
    X00002391  C00001600  -1
    X00002392  C00000084  1
    X00002392  C00001332  1
    X00002392  C00001600  1
    X00002393  C00000091  1
    X00002393  C00001333  1
    X00002393  C00001600  1
    X00002394  C00000098  1
    X00002394  C00001334  1
    X00002394  C00001600  1
    X00002395  C00000105  1
    X00002395  C00001335  1
    X00002395  C00001600  1
    X00002396  C00000112  1
    X00002396  C00001336  1
    X00002396  C00001600  1
    X00002397  C00000119  1
    X00002397  C00001337  1
    X00002397  C00001600  1
    X00002398  C00000126  1
    X00002398  C00001338  1
    X00002398  C00001600  1
    X00002399  C00000133  1
    X00002399  C00001339  1
    X00002399  C00001600  1
    X00002400  C00000140  1
    X00002400  C00001340  1
    X00002400  C00001600  1
    X00002401  C00000147  1
    X00002401  C00001331  1
    X00002401  C00001601  -1
    X00002402  C00000154  1
    X00002402  C00001332  1
    X00002402  C00001601  1
    X00002403  C00000161  1
    X00002403  C00001333  1
    X00002403  C00001601  1
    X00002404  C00000168  1
    X00002404  C00001334  1
    X00002404  C00001601  1
    X00002405  C00000175  1
    X00002405  C00001335  1
    X00002405  C00001601  1
    X00002406  C00000182  1
    X00002406  C00001336  1
    X00002406  C00001601  1
    X00002407  C00000189  1
    X00002407  C00001337  1
    X00002407  C00001601  1
    X00002408  C00000196  1
    X00002408  C00001338  1
    X00002408  C00001601  1
    X00002409  C00000203  1
    X00002409  C00001339  1
    X00002409  C00001601  1
    X00002410  C00000210  1
    X00002410  C00001340  1
    X00002410  C00001601  1
    X00002411  C00000217  1
    X00002411  C00001331  1
    X00002411  C00001602  -1
    X00002412  C00000224  1
    X00002412  C00001332  1
    X00002412  C00001602  1
    X00002413  C00000231  1
    X00002413  C00001333  1
    X00002413  C00001602  1
    X00002414  C00000238  1
    X00002414  C00001334  1
    X00002414  C00001602  1
    X00002415  C00000245  1
    X00002415  C00001335  1
    X00002415  C00001602  1
    X00002416  C00000252  1
    X00002416  C00001336  1
    X00002416  C00001602  1
    X00002417  C00000259  1
    X00002417  C00001337  1
    X00002417  C00001602  1
    X00002418  C00000266  1
    X00002418  C00001338  1
    X00002418  C00001602  1
    X00002419  C00000273  1
    X00002419  C00001339  1
    X00002419  C00001602  1
    X00002420  C00000280  1
    X00002420  C00001340  1
    X00002420  C00001602  1
    X00002421  C00000287  1
    X00002421  C00001331  1
    X00002421  C00001603  -1
    X00002422  C00000294  1
    X00002422  C00001332  1
    X00002422  C00001603  1
    X00002423  C00000301  1
    X00002423  C00001333  1
    X00002423  C00001603  1
    X00002424  C00000308  1
    X00002424  C00001334  1
    X00002424  C00001603  1
    X00002425  C00000315  1
    X00002425  C00001335  1
    X00002425  C00001603  1
    X00002426  C00000322  1
    X00002426  C00001336  1
    X00002426  C00001603  1
    X00002427  C00000329  1
    X00002427  C00001337  1
    X00002427  C00001603  1
    X00002428  C00000336  1
    X00002428  C00001338  1
    X00002428  C00001603  1
    X00002429  C00000343  1
    X00002429  C00001339  1
    X00002429  C00001603  1
    X00002430  C00000350  1
    X00002430  C00001340  1
    X00002430  C00001603  1
    X00002431  C00000357  1
    X00002431  C00001331  1
    X00002431  C00001604  -1
    X00002432  C00000364  1
    X00002432  C00001332  1
    X00002432  C00001604  1
    X00002433  C00000371  1
    X00002433  C00001333  1
    X00002433  C00001604  1
    X00002434  C00000378  1
    X00002434  C00001334  1
    X00002434  C00001604  1
    X00002435  C00000385  1
    X00002435  C00001335  1
    X00002435  C00001604  1
    X00002436  C00000392  1
    X00002436  C00001336  1
    X00002436  C00001604  1
    X00002437  C00000399  1
    X00002437  C00001337  1
    X00002437  C00001604  1
    X00002438  C00000406  1
    X00002438  C00001338  1
    X00002438  C00001604  1
    X00002439  C00000413  1
    X00002439  C00001339  1
    X00002439  C00001604  1
    X00002440  C00000420  1
    X00002440  C00001340  1
    X00002440  C00001604  1
    X00002441  C00000427  1
    X00002441  C00001331  1
    X00002441  C00001605  -1
    X00002442  C00000434  1
    X00002442  C00001332  1
    X00002442  C00001605  1
    X00002443  C00000441  1
    X00002443  C00001333  1
    X00002443  C00001605  1
    X00002444  C00000448  1
    X00002444  C00001334  1
    X00002444  C00001605  1
    X00002445  C00000455  1
    X00002445  C00001335  1
    X00002445  C00001605  1
    X00002446  C00000462  1
    X00002446  C00001336  1
    X00002446  C00001605  1
    X00002447  C00000469  1
    X00002447  C00001337  1
    X00002447  C00001605  1
    X00002448  C00000476  1
    X00002448  C00001338  1
    X00002448  C00001605  1
    X00002449  C00000483  1
    X00002449  C00001339  1
    X00002449  C00001605  1
    X00002450  C00000490  1
    X00002450  C00001340  1
    X00002450  C00001605  1
    X00002451  C00000497  1
    X00002451  C00001331  1
    X00002451  C00001606  -1
    X00002452  C00000504  1
    X00002452  C00001332  1
    X00002452  C00001606  1
    X00002453  C00000511  1
    X00002453  C00001333  1
    X00002453  C00001606  1
    X00002454  C00000518  1
    X00002454  C00001334  1
    X00002454  C00001606  1
    X00002455  C00000525  1
    X00002455  C00001335  1
    X00002455  C00001606  1
    X00002456  C00000532  1
    X00002456  C00001336  1
    X00002456  C00001606  1
    X00002457  C00000539  1
    X00002457  C00001337  1
    X00002457  C00001606  1
    X00002458  C00000546  1
    X00002458  C00001338  1
    X00002458  C00001606  1
    X00002459  C00000553  1
    X00002459  C00001339  1
    X00002459  C00001606  1
    X00002460  C00000560  1
    X00002460  C00001340  1
    X00002460  C00001606  1
    X00002461  C00000567  1
    X00002461  C00001331  1
    X00002461  C00001607  -1
    X00002462  C00000574  1
    X00002462  C00001332  1
    X00002462  C00001607  1
    X00002463  C00000581  1
    X00002463  C00001333  1
    X00002463  C00001607  1
    X00002464  C00000588  1
    X00002464  C00001334  1
    X00002464  C00001607  1
    X00002465  C00000595  1
    X00002465  C00001335  1
    X00002465  C00001607  1
    X00002466  C00000602  1
    X00002466  C00001336  1
    X00002466  C00001607  1
    X00002467  C00000609  1
    X00002467  C00001337  1
    X00002467  C00001607  1
    X00002468  C00000616  1
    X00002468  C00001338  1
    X00002468  C00001607  1
    X00002469  C00000623  1
    X00002469  C00001339  1
    X00002469  C00001607  1
    X00002470  C00000630  1
    X00002470  C00001340  1
    X00002470  C00001607  1
    X00002471  C00000637  1
    X00002471  C00001331  1
    X00002471  C00001608  -1
    X00002472  C00000644  1
    X00002472  C00001332  1
    X00002472  C00001608  1
    X00002473  C00000651  1
    X00002473  C00001333  1
    X00002473  C00001608  1
    X00002474  C00000658  1
    X00002474  C00001334  1
    X00002474  C00001608  1
    X00002475  C00000665  1
    X00002475  C00001335  1
    X00002475  C00001608  1
    X00002476  C00000672  1
    X00002476  C00001336  1
    X00002476  C00001608  1
    X00002477  C00000679  1
    X00002477  C00001337  1
    X00002477  C00001608  1
    X00002478  C00000686  1
    X00002478  C00001338  1
    X00002478  C00001608  1
    X00002479  C00000693  1
    X00002479  C00001339  1
    X00002479  C00001608  1
    X00002480  C00000700  1
    X00002480  C00001340  1
    X00002480  C00001608  1
    X00002481  C00000707  1
    X00002481  C00001331  1
    X00002481  C00001609  -1
    X00002482  C00000714  1
    X00002482  C00001332  1
    X00002482  C00001609  1
    X00002483  C00000721  1
    X00002483  C00001333  1
    X00002483  C00001609  1
    X00002484  C00000728  1
    X00002484  C00001334  1
    X00002484  C00001609  1
    X00002485  C00000735  1
    X00002485  C00001335  1
    X00002485  C00001609  1
    X00002486  C00000742  1
    X00002486  C00001336  1
    X00002486  C00001609  1
    X00002487  C00000749  1
    X00002487  C00001337  1
    X00002487  C00001609  1
    X00002488  C00000756  1
    X00002488  C00001338  1
    X00002488  C00001609  1
    X00002489  C00000763  1
    X00002489  C00001339  1
    X00002489  C00001609  1
    X00002490  C00000770  1
    X00002490  C00001340  1
    X00002490  C00001609  1
    X00002491  C00000777  1
    X00002491  C00001331  1
    X00002491  C00001610  -1
    X00002492  C00000784  1
    X00002492  C00001332  1
    X00002492  C00001610  1
    X00002493  C00000791  1
    X00002493  C00001333  1
    X00002493  C00001610  1
    X00002494  C00000798  1
    X00002494  C00001334  1
    X00002494  C00001610  1
    X00002495  C00000805  1
    X00002495  C00001335  1
    X00002495  C00001610  1
    X00002496  C00000812  1
    X00002496  C00001336  1
    X00002496  C00001610  1
    X00002497  C00000819  1
    X00002497  C00001337  1
    X00002497  C00001610  1
    X00002498  C00000826  1
    X00002498  C00001338  1
    X00002498  C00001610  1
    X00002499  C00000833  1
    X00002499  C00001339  1
    X00002499  C00001610  1
    X00002500  C00000840  1
    X00002500  C00001340  1
    X00002500  C00001610  1
    X00002501  C00000847  1
    X00002501  C00001331  1
    X00002501  C00001611  -1
    X00002502  C00000854  1
    X00002502  C00001332  1
    X00002502  C00001611  1
    X00002503  C00000861  1
    X00002503  C00001333  1
    X00002503  C00001611  1
    X00002504  C00000868  1
    X00002504  C00001334  1
    X00002504  C00001611  1
    X00002505  C00000875  1
    X00002505  C00001335  1
    X00002505  C00001611  1
    X00002506  C00000882  1
    X00002506  C00001336  1
    X00002506  C00001611  1
    X00002507  C00000889  1
    X00002507  C00001337  1
    X00002507  C00001611  1
    X00002508  C00000896  1
    X00002508  C00001338  1
    X00002508  C00001611  1
    X00002509  C00000903  1
    X00002509  C00001339  1
    X00002509  C00001611  1
    X00002510  C00000910  1
    X00002510  C00001340  1
    X00002510  C00001611  1
    X00002511  C00000917  1
    X00002511  C00001331  1
    X00002511  C00001612  -1
    X00002512  C00000924  1
    X00002512  C00001332  1
    X00002512  C00001612  1
    X00002513  C00000931  1
    X00002513  C00001333  1
    X00002513  C00001612  1
    X00002514  C00000938  1
    X00002514  C00001334  1
    X00002514  C00001612  1
    X00002515  C00000945  1
    X00002515  C00001335  1
    X00002515  C00001612  1
    X00002516  C00000952  1
    X00002516  C00001336  1
    X00002516  C00001612  1
    X00002517  C00000959  1
    X00002517  C00001337  1
    X00002517  C00001612  1
    X00002518  C00000966  1
    X00002518  C00001338  1
    X00002518  C00001612  1
    X00002519  C00000973  1
    X00002519  C00001339  1
    X00002519  C00001612  1
    X00002520  C00000980  1
    X00002520  C00001340  1
    X00002520  C00001612  1
    X00002521  C00000987  1
    X00002521  C00001331  1
    X00002521  C00001613  -1
    X00002522  C00000994  1
    X00002522  C00001332  1
    X00002522  C00001613  1
    X00002523  C00001001  1
    X00002523  C00001333  1
    X00002523  C00001613  1
    X00002524  C00001008  1
    X00002524  C00001334  1
    X00002524  C00001613  1
    X00002525  C00001015  1
    X00002525  C00001335  1
    X00002525  C00001613  1
    X00002526  C00001022  1
    X00002526  C00001336  1
    X00002526  C00001613  1
    X00002527  C00001029  1
    X00002527  C00001337  1
    X00002527  C00001613  1
    X00002528  C00001036  1
    X00002528  C00001338  1
    X00002528  C00001613  1
    X00002529  C00001043  1
    X00002529  C00001339  1
    X00002529  C00001613  1
    X00002530  C00001050  1
    X00002530  C00001340  1
    X00002530  C00001613  1
    X00002531  C00001057  1
    X00002531  C00001331  1
    X00002531  C00001614  -1
    X00002532  C00001064  1
    X00002532  C00001332  1
    X00002532  C00001614  1
    X00002533  C00001071  1
    X00002533  C00001333  1
    X00002533  C00001614  1
    X00002534  C00001078  1
    X00002534  C00001334  1
    X00002534  C00001614  1
    X00002535  C00001085  1
    X00002535  C00001335  1
    X00002535  C00001614  1
    X00002536  C00001092  1
    X00002536  C00001336  1
    X00002536  C00001614  1
    X00002537  C00001099  1
    X00002537  C00001337  1
    X00002537  C00001614  1
    X00002538  C00001106  1
    X00002538  C00001338  1
    X00002538  C00001614  1
    X00002539  C00001113  1
    X00002539  C00001339  1
    X00002539  C00001614  1
    X00002540  C00001120  1
    X00002540  C00001340  1
    X00002540  C00001614  1
    X00002541  C00001127  1
    X00002541  C00001331  1
    X00002541  C00001615  -1
    X00002542  C00001134  1
    X00002542  C00001332  1
    X00002542  C00001615  1
    X00002543  C00001141  1
    X00002543  C00001333  1
    X00002543  C00001615  1
    X00002544  C00001148  1
    X00002544  C00001334  1
    X00002544  C00001615  1
    X00002545  C00001155  1
    X00002545  C00001335  1
    X00002545  C00001615  1
    X00002546  C00001162  1
    X00002546  C00001336  1
    X00002546  C00001615  1
    X00002547  C00001169  1
    X00002547  C00001337  1
    X00002547  C00001615  1
    X00002548  C00001176  1
    X00002548  C00001338  1
    X00002548  C00001615  1
    X00002549  C00001183  1
    X00002549  C00001339  1
    X00002549  C00001615  1
    X00002550  C00001190  1
    X00002550  C00001340  1
    X00002550  C00001615  1
    X00002551  C00000007  1
    X00002551  C00001341  -1
    X00002551  C00001616  -1
    X00002552  C00000014  1
    X00002552  C00001342  -1
    X00002552  C00001616  1
    X00002553  C00000021  1
    X00002553  C00001343  -1
    X00002553  C00001616  1
    X00002554  C00000028  1
    X00002554  C00001344  -1
    X00002554  C00001616  1
    X00002555  C00000035  1
    X00002555  C00001345  -1
    X00002555  C00001616  1
    X00002556  C00000042  1
    X00002556  C00001346  -1
    X00002556  C00001616  1
    X00002557  C00000049  1
    X00002557  C00001347  -1
    X00002557  C00001616  1
    X00002558  C00000056  1
    X00002558  C00001348  -1
    X00002558  C00001616  1
    X00002559  C00000063  1
    X00002559  C00001349  -1
    X00002559  C00001616  1
    X00002560  C00000070  1
    X00002560  C00001350  -1
    X00002560  C00001616  1
    X00002561  C00000077  1
    X00002561  C00001341  1
    X00002561  C00001617  -1
    X00002562  C00000084  1
    X00002562  C00001342  1
    X00002562  C00001617  1
    X00002563  C00000091  1
    X00002563  C00001343  1
    X00002563  C00001617  1
    X00002564  C00000098  1
    X00002564  C00001344  1
    X00002564  C00001617  1
    X00002565  C00000105  1
    X00002565  C00001345  1
    X00002565  C00001617  1
    X00002566  C00000112  1
    X00002566  C00001346  1
    X00002566  C00001617  1
    X00002567  C00000119  1
    X00002567  C00001347  1
    X00002567  C00001617  1
    X00002568  C00000126  1
    X00002568  C00001348  1
    X00002568  C00001617  1
    X00002569  C00000133  1
    X00002569  C00001349  1
    X00002569  C00001617  1
    X00002570  C00000140  1
    X00002570  C00001350  1
    X00002570  C00001617  1
    X00002571  C00000147  1
    X00002571  C00001341  1
    X00002571  C00001618  -1
    X00002572  C00000154  1
    X00002572  C00001342  1
    X00002572  C00001618  1
    X00002573  C00000161  1
    X00002573  C00001343  1
    X00002573  C00001618  1
    X00002574  C00000168  1
    X00002574  C00001344  1
    X00002574  C00001618  1
    X00002575  C00000175  1
    X00002575  C00001345  1
    X00002575  C00001618  1
    X00002576  C00000182  1
    X00002576  C00001346  1
    X00002576  C00001618  1
    X00002577  C00000189  1
    X00002577  C00001347  1
    X00002577  C00001618  1
    X00002578  C00000196  1
    X00002578  C00001348  1
    X00002578  C00001618  1
    X00002579  C00000203  1
    X00002579  C00001349  1
    X00002579  C00001618  1
    X00002580  C00000210  1
    X00002580  C00001350  1
    X00002580  C00001618  1
    X00002581  C00000217  1
    X00002581  C00001341  1
    X00002581  C00001619  -1
    X00002582  C00000224  1
    X00002582  C00001342  1
    X00002582  C00001619  1
    X00002583  C00000231  1
    X00002583  C00001343  1
    X00002583  C00001619  1
    X00002584  C00000238  1
    X00002584  C00001344  1
    X00002584  C00001619  1
    X00002585  C00000245  1
    X00002585  C00001345  1
    X00002585  C00001619  1
    X00002586  C00000252  1
    X00002586  C00001346  1
    X00002586  C00001619  1
    X00002587  C00000259  1
    X00002587  C00001347  1
    X00002587  C00001619  1
    X00002588  C00000266  1
    X00002588  C00001348  1
    X00002588  C00001619  1
    X00002589  C00000273  1
    X00002589  C00001349  1
    X00002589  C00001619  1
    X00002590  C00000280  1
    X00002590  C00001350  1
    X00002590  C00001619  1
    X00002591  C00000287  1
    X00002591  C00001341  1
    X00002591  C00001620  -1
    X00002592  C00000294  1
    X00002592  C00001342  1
    X00002592  C00001620  1
    X00002593  C00000301  1
    X00002593  C00001343  1
    X00002593  C00001620  1
    X00002594  C00000308  1
    X00002594  C00001344  1
    X00002594  C00001620  1
    X00002595  C00000315  1
    X00002595  C00001345  1
    X00002595  C00001620  1
    X00002596  C00000322  1
    X00002596  C00001346  1
    X00002596  C00001620  1
    X00002597  C00000329  1
    X00002597  C00001347  1
    X00002597  C00001620  1
    X00002598  C00000336  1
    X00002598  C00001348  1
    X00002598  C00001620  1
    X00002599  C00000343  1
    X00002599  C00001349  1
    X00002599  C00001620  1
    X00002600  C00000350  1
    X00002600  C00001350  1
    X00002600  C00001620  1
    X00002601  C00000357  1
    X00002601  C00001341  1
    X00002601  C00001621  -1
    X00002602  C00000364  1
    X00002602  C00001342  1
    X00002602  C00001621  1
    X00002603  C00000371  1
    X00002603  C00001343  1
    X00002603  C00001621  1
    X00002604  C00000378  1
    X00002604  C00001344  1
    X00002604  C00001621  1
    X00002605  C00000385  1
    X00002605  C00001345  1
    X00002605  C00001621  1
    X00002606  C00000392  1
    X00002606  C00001346  1
    X00002606  C00001621  1
    X00002607  C00000399  1
    X00002607  C00001347  1
    X00002607  C00001621  1
    X00002608  C00000406  1
    X00002608  C00001348  1
    X00002608  C00001621  1
    X00002609  C00000413  1
    X00002609  C00001349  1
    X00002609  C00001621  1
    X00002610  C00000420  1
    X00002610  C00001350  1
    X00002610  C00001621  1
    X00002611  C00000427  1
    X00002611  C00001341  1
    X00002611  C00001622  -1
    X00002612  C00000434  1
    X00002612  C00001342  1
    X00002612  C00001622  1
    X00002613  C00000441  1
    X00002613  C00001343  1
    X00002613  C00001622  1
    X00002614  C00000448  1
    X00002614  C00001344  1
    X00002614  C00001622  1
    X00002615  C00000455  1
    X00002615  C00001345  1
    X00002615  C00001622  1
    X00002616  C00000462  1
    X00002616  C00001346  1
    X00002616  C00001622  1
    X00002617  C00000469  1
    X00002617  C00001347  1
    X00002617  C00001622  1
    X00002618  C00000476  1
    X00002618  C00001348  1
    X00002618  C00001622  1
    X00002619  C00000483  1
    X00002619  C00001349  1
    X00002619  C00001622  1
    X00002620  C00000490  1
    X00002620  C00001350  1
    X00002620  C00001622  1
    X00002621  C00000497  1
    X00002621  C00001341  1
    X00002621  C00001623  -1
    X00002622  C00000504  1
    X00002622  C00001342  1
    X00002622  C00001623  1
    X00002623  C00000511  1
    X00002623  C00001343  1
    X00002623  C00001623  1
    X00002624  C00000518  1
    X00002624  C00001344  1
    X00002624  C00001623  1
    X00002625  C00000525  1
    X00002625  C00001345  1
    X00002625  C00001623  1
    X00002626  C00000532  1
    X00002626  C00001346  1
    X00002626  C00001623  1
    X00002627  C00000539  1
    X00002627  C00001347  1
    X00002627  C00001623  1
    X00002628  C00000546  1
    X00002628  C00001348  1
    X00002628  C00001623  1
    X00002629  C00000553  1
    X00002629  C00001349  1
    X00002629  C00001623  1
    X00002630  C00000560  1
    X00002630  C00001350  1
    X00002630  C00001623  1
    X00002631  C00000567  1
    X00002631  C00001341  1
    X00002631  C00001624  -1
    X00002632  C00000574  1
    X00002632  C00001342  1
    X00002632  C00001624  1
    X00002633  C00000581  1
    X00002633  C00001343  1
    X00002633  C00001624  1
    X00002634  C00000588  1
    X00002634  C00001344  1
    X00002634  C00001624  1
    X00002635  C00000595  1
    X00002635  C00001345  1
    X00002635  C00001624  1
    X00002636  C00000602  1
    X00002636  C00001346  1
    X00002636  C00001624  1
    X00002637  C00000609  1
    X00002637  C00001347  1
    X00002637  C00001624  1
    X00002638  C00000616  1
    X00002638  C00001348  1
    X00002638  C00001624  1
    X00002639  C00000623  1
    X00002639  C00001349  1
    X00002639  C00001624  1
    X00002640  C00000630  1
    X00002640  C00001350  1
    X00002640  C00001624  1
    X00002641  C00000637  1
    X00002641  C00001341  1
    X00002641  C00001625  -1
    X00002642  C00000644  1
    X00002642  C00001342  1
    X00002642  C00001625  1
    X00002643  C00000651  1
    X00002643  C00001343  1
    X00002643  C00001625  1
    X00002644  C00000658  1
    X00002644  C00001344  1
    X00002644  C00001625  1
    X00002645  C00000665  1
    X00002645  C00001345  1
    X00002645  C00001625  1
    X00002646  C00000672  1
    X00002646  C00001346  1
    X00002646  C00001625  1
    X00002647  C00000679  1
    X00002647  C00001347  1
    X00002647  C00001625  1
    X00002648  C00000686  1
    X00002648  C00001348  1
    X00002648  C00001625  1
    X00002649  C00000693  1
    X00002649  C00001349  1
    X00002649  C00001625  1
    X00002650  C00000700  1
    X00002650  C00001350  1
    X00002650  C00001625  1
    X00002651  C00000707  1
    X00002651  C00001341  1
    X00002651  C00001626  -1
    X00002652  C00000714  1
    X00002652  C00001342  1
    X00002652  C00001626  1
    X00002653  C00000721  1
    X00002653  C00001343  1
    X00002653  C00001626  1
    X00002654  C00000728  1
    X00002654  C00001344  1
    X00002654  C00001626  1
    X00002655  C00000735  1
    X00002655  C00001345  1
    X00002655  C00001626  1
    X00002656  C00000742  1
    X00002656  C00001346  1
    X00002656  C00001626  1
    X00002657  C00000749  1
    X00002657  C00001347  1
    X00002657  C00001626  1
    X00002658  C00000756  1
    X00002658  C00001348  1
    X00002658  C00001626  1
    X00002659  C00000763  1
    X00002659  C00001349  1
    X00002659  C00001626  1
    X00002660  C00000770  1
    X00002660  C00001350  1
    X00002660  C00001626  1
    X00002661  C00000777  1
    X00002661  C00001341  1
    X00002661  C00001627  -1
    X00002662  C00000784  1
    X00002662  C00001342  1
    X00002662  C00001627  1
    X00002663  C00000791  1
    X00002663  C00001343  1
    X00002663  C00001627  1
    X00002664  C00000798  1
    X00002664  C00001344  1
    X00002664  C00001627  1
    X00002665  C00000805  1
    X00002665  C00001345  1
    X00002665  C00001627  1
    X00002666  C00000812  1
    X00002666  C00001346  1
    X00002666  C00001627  1
    X00002667  C00000819  1
    X00002667  C00001347  1
    X00002667  C00001627  1
    X00002668  C00000826  1
    X00002668  C00001348  1
    X00002668  C00001627  1
    X00002669  C00000833  1
    X00002669  C00001349  1
    X00002669  C00001627  1
    X00002670  C00000840  1
    X00002670  C00001350  1
    X00002670  C00001627  1
    X00002671  C00000847  1
    X00002671  C00001341  1
    X00002671  C00001628  -1
    X00002672  C00000854  1
    X00002672  C00001342  1
    X00002672  C00001628  1
    X00002673  C00000861  1
    X00002673  C00001343  1
    X00002673  C00001628  1
    X00002674  C00000868  1
    X00002674  C00001344  1
    X00002674  C00001628  1
    X00002675  C00000875  1
    X00002675  C00001345  1
    X00002675  C00001628  1
    X00002676  C00000882  1
    X00002676  C00001346  1
    X00002676  C00001628  1
    X00002677  C00000889  1
    X00002677  C00001347  1
    X00002677  C00001628  1
    X00002678  C00000896  1
    X00002678  C00001348  1
    X00002678  C00001628  1
    X00002679  C00000903  1
    X00002679  C00001349  1
    X00002679  C00001628  1
    X00002680  C00000910  1
    X00002680  C00001350  1
    X00002680  C00001628  1
    X00002681  C00000917  1
    X00002681  C00001341  1
    X00002681  C00001629  -1
    X00002682  C00000924  1
    X00002682  C00001342  1
    X00002682  C00001629  1
    X00002683  C00000931  1
    X00002683  C00001343  1
    X00002683  C00001629  1
    X00002684  C00000938  1
    X00002684  C00001344  1
    X00002684  C00001629  1
    X00002685  C00000945  1
    X00002685  C00001345  1
    X00002685  C00001629  1
    X00002686  C00000952  1
    X00002686  C00001346  1
    X00002686  C00001629  1
    X00002687  C00000959  1
    X00002687  C00001347  1
    X00002687  C00001629  1
    X00002688  C00000966  1
    X00002688  C00001348  1
    X00002688  C00001629  1
    X00002689  C00000973  1
    X00002689  C00001349  1
    X00002689  C00001629  1
    X00002690  C00000980  1
    X00002690  C00001350  1
    X00002690  C00001629  1
    X00002691  C00000987  1
    X00002691  C00001341  1
    X00002691  C00001630  -1
    X00002692  C00000994  1
    X00002692  C00001342  1
    X00002692  C00001630  1
    X00002693  C00001001  1
    X00002693  C00001343  1
    X00002693  C00001630  1
    X00002694  C00001008  1
    X00002694  C00001344  1
    X00002694  C00001630  1
    X00002695  C00001015  1
    X00002695  C00001345  1
    X00002695  C00001630  1
    X00002696  C00001022  1
    X00002696  C00001346  1
    X00002696  C00001630  1
    X00002697  C00001029  1
    X00002697  C00001347  1
    X00002697  C00001630  1
    X00002698  C00001036  1
    X00002698  C00001348  1
    X00002698  C00001630  1
    X00002699  C00001043  1
    X00002699  C00001349  1
    X00002699  C00001630  1
    X00002700  C00001050  1
    X00002700  C00001350  1
    X00002700  C00001630  1
    X00002701  C00001057  1
    X00002701  C00001341  1
    X00002701  C00001631  -1
    X00002702  C00001064  1
    X00002702  C00001342  1
    X00002702  C00001631  1
    X00002703  C00001071  1
    X00002703  C00001343  1
    X00002703  C00001631  1
    X00002704  C00001078  1
    X00002704  C00001344  1
    X00002704  C00001631  1
    X00002705  C00001085  1
    X00002705  C00001345  1
    X00002705  C00001631  1
    X00002706  C00001092  1
    X00002706  C00001346  1
    X00002706  C00001631  1
    X00002707  C00001099  1
    X00002707  C00001347  1
    X00002707  C00001631  1
    X00002708  C00001106  1
    X00002708  C00001348  1
    X00002708  C00001631  1
    X00002709  C00001113  1
    X00002709  C00001349  1
    X00002709  C00001631  1
    X00002710  C00001120  1
    X00002710  C00001350  1
    X00002710  C00001631  1
    X00002711  C00001127  1
    X00002711  C00001341  1
    X00002711  C00001632  -1
    X00002712  C00001134  1
    X00002712  C00001342  1
    X00002712  C00001632  1
    X00002713  C00001141  1
    X00002713  C00001343  1
    X00002713  C00001632  1
    X00002714  C00001148  1
    X00002714  C00001344  1
    X00002714  C00001632  1
    X00002715  C00001155  1
    X00002715  C00001345  1
    X00002715  C00001632  1
    X00002716  C00001162  1
    X00002716  C00001346  1
    X00002716  C00001632  1
    X00002717  C00001169  1
    X00002717  C00001347  1
    X00002717  C00001632  1
    X00002718  C00001176  1
    X00002718  C00001348  1
    X00002718  C00001632  1
    X00002719  C00001183  1
    X00002719  C00001349  1
    X00002719  C00001632  1
    X00002720  C00001190  1
    X00002720  C00001350  1
    X00002720  C00001632  1
    X00002721  C00000001  1
    X00002721  C00001351  -1
    X00002721  C00001633  -1
    X00002722  C00000008  1
    X00002722  C00001352  -1
    X00002722  C00001633  1
    X00002723  C00000015  1
    X00002723  C00001353  -1
    X00002723  C00001633  1
    X00002724  C00000022  1
    X00002724  C00001354  -1
    X00002724  C00001633  1
    X00002725  C00000029  1
    X00002725  C00001355  -1
    X00002725  C00001633  1
    X00002726  C00000036  1
    X00002726  C00001356  -1
    X00002726  C00001633  1
    X00002727  C00000043  1
    X00002727  C00001357  -1
    X00002727  C00001633  1
    X00002728  C00000050  1
    X00002728  C00001358  -1
    X00002728  C00001633  1
    X00002729  C00000057  1
    X00002729  C00001359  -1
    X00002729  C00001633  1
    X00002730  C00000064  1
    X00002730  C00001360  -1
    X00002730  C00001633  1
    X00002731  C00000071  1
    X00002731  C00001351  1
    X00002731  C00001634  -1
    X00002732  C00000078  1
    X00002732  C00001352  1
    X00002732  C00001634  1
    X00002733  C00000085  1
    X00002733  C00001353  1
    X00002733  C00001634  1
    X00002734  C00000092  1
    X00002734  C00001354  1
    X00002734  C00001634  1
    X00002735  C00000099  1
    X00002735  C00001355  1
    X00002735  C00001634  1
    X00002736  C00000106  1
    X00002736  C00001356  1
    X00002736  C00001634  1
    X00002737  C00000113  1
    X00002737  C00001357  1
    X00002737  C00001634  1
    X00002738  C00000120  1
    X00002738  C00001358  1
    X00002738  C00001634  1
    X00002739  C00000127  1
    X00002739  C00001359  1
    X00002739  C00001634  1
    X00002740  C00000134  1
    X00002740  C00001360  1
    X00002740  C00001634  1
    X00002741  C00000141  1
    X00002741  C00001351  1
    X00002741  C00001635  -1
    X00002742  C00000148  1
    X00002742  C00001352  1
    X00002742  C00001635  1
    X00002743  C00000155  1
    X00002743  C00001353  1
    X00002743  C00001635  1
    X00002744  C00000162  1
    X00002744  C00001354  1
    X00002744  C00001635  1
    X00002745  C00000169  1
    X00002745  C00001355  1
    X00002745  C00001635  1
    X00002746  C00000176  1
    X00002746  C00001356  1
    X00002746  C00001635  1
    X00002747  C00000183  1
    X00002747  C00001357  1
    X00002747  C00001635  1
    X00002748  C00000190  1
    X00002748  C00001358  1
    X00002748  C00001635  1
    X00002749  C00000197  1
    X00002749  C00001359  1
    X00002749  C00001635  1
    X00002750  C00000204  1
    X00002750  C00001360  1
    X00002750  C00001635  1
    X00002751  C00000211  1
    X00002751  C00001351  1
    X00002751  C00001636  -1
    X00002752  C00000218  1
    X00002752  C00001352  1
    X00002752  C00001636  1
    X00002753  C00000225  1
    X00002753  C00001353  1
    X00002753  C00001636  1
    X00002754  C00000232  1
    X00002754  C00001354  1
    X00002754  C00001636  1
    X00002755  C00000239  1
    X00002755  C00001355  1
    X00002755  C00001636  1
    X00002756  C00000246  1
    X00002756  C00001356  1
    X00002756  C00001636  1
    X00002757  C00000253  1
    X00002757  C00001357  1
    X00002757  C00001636  1
    X00002758  C00000260  1
    X00002758  C00001358  1
    X00002758  C00001636  1
    X00002759  C00000267  1
    X00002759  C00001359  1
    X00002759  C00001636  1
    X00002760  C00000274  1
    X00002760  C00001360  1
    X00002760  C00001636  1
    X00002761  C00000281  1
    X00002761  C00001351  1
    X00002761  C00001637  -1
    X00002762  C00000288  1
    X00002762  C00001352  1
    X00002762  C00001637  1
    X00002763  C00000295  1
    X00002763  C00001353  1
    X00002763  C00001637  1
    X00002764  C00000302  1
    X00002764  C00001354  1
    X00002764  C00001637  1
    X00002765  C00000309  1
    X00002765  C00001355  1
    X00002765  C00001637  1
    X00002766  C00000316  1
    X00002766  C00001356  1
    X00002766  C00001637  1
    X00002767  C00000323  1
    X00002767  C00001357  1
    X00002767  C00001637  1
    X00002768  C00000330  1
    X00002768  C00001358  1
    X00002768  C00001637  1
    X00002769  C00000337  1
    X00002769  C00001359  1
    X00002769  C00001637  1
    X00002770  C00000344  1
    X00002770  C00001360  1
    X00002770  C00001637  1
    X00002771  C00000351  1
    X00002771  C00001351  1
    X00002771  C00001638  -1
    X00002772  C00000358  1
    X00002772  C00001352  1
    X00002772  C00001638  1
    X00002773  C00000365  1
    X00002773  C00001353  1
    X00002773  C00001638  1
    X00002774  C00000372  1
    X00002774  C00001354  1
    X00002774  C00001638  1
    X00002775  C00000379  1
    X00002775  C00001355  1
    X00002775  C00001638  1
    X00002776  C00000386  1
    X00002776  C00001356  1
    X00002776  C00001638  1
    X00002777  C00000393  1
    X00002777  C00001357  1
    X00002777  C00001638  1
    X00002778  C00000400  1
    X00002778  C00001358  1
    X00002778  C00001638  1
    X00002779  C00000407  1
    X00002779  C00001359  1
    X00002779  C00001638  1
    X00002780  C00000414  1
    X00002780  C00001360  1
    X00002780  C00001638  1
    X00002781  C00000421  1
    X00002781  C00001351  1
    X00002781  C00001639  -1
    X00002782  C00000428  1
    X00002782  C00001352  1
    X00002782  C00001639  1
    X00002783  C00000435  1
    X00002783  C00001353  1
    X00002783  C00001639  1
    X00002784  C00000442  1
    X00002784  C00001354  1
    X00002784  C00001639  1
    X00002785  C00000449  1
    X00002785  C00001355  1
    X00002785  C00001639  1
    X00002786  C00000456  1
    X00002786  C00001356  1
    X00002786  C00001639  1
    X00002787  C00000463  1
    X00002787  C00001357  1
    X00002787  C00001639  1
    X00002788  C00000470  1
    X00002788  C00001358  1
    X00002788  C00001639  1
    X00002789  C00000477  1
    X00002789  C00001359  1
    X00002789  C00001639  1
    X00002790  C00000484  1
    X00002790  C00001360  1
    X00002790  C00001639  1
    X00002791  C00000491  1
    X00002791  C00001351  1
    X00002791  C00001640  -1
    X00002792  C00000498  1
    X00002792  C00001352  1
    X00002792  C00001640  1
    X00002793  C00000505  1
    X00002793  C00001353  1
    X00002793  C00001640  1
    X00002794  C00000512  1
    X00002794  C00001354  1
    X00002794  C00001640  1
    X00002795  C00000519  1
    X00002795  C00001355  1
    X00002795  C00001640  1
    X00002796  C00000526  1
    X00002796  C00001356  1
    X00002796  C00001640  1
    X00002797  C00000533  1
    X00002797  C00001357  1
    X00002797  C00001640  1
    X00002798  C00000540  1
    X00002798  C00001358  1
    X00002798  C00001640  1
    X00002799  C00000547  1
    X00002799  C00001359  1
    X00002799  C00001640  1
    X00002800  C00000554  1
    X00002800  C00001360  1
    X00002800  C00001640  1
    X00002801  C00000561  1
    X00002801  C00001351  1
    X00002801  C00001641  -1
    X00002802  C00000568  1
    X00002802  C00001352  1
    X00002802  C00001641  1
    X00002803  C00000575  1
    X00002803  C00001353  1
    X00002803  C00001641  1
    X00002804  C00000582  1
    X00002804  C00001354  1
    X00002804  C00001641  1
    X00002805  C00000589  1
    X00002805  C00001355  1
    X00002805  C00001641  1
    X00002806  C00000596  1
    X00002806  C00001356  1
    X00002806  C00001641  1
    X00002807  C00000603  1
    X00002807  C00001357  1
    X00002807  C00001641  1
    X00002808  C00000610  1
    X00002808  C00001358  1
    X00002808  C00001641  1
    X00002809  C00000617  1
    X00002809  C00001359  1
    X00002809  C00001641  1
    X00002810  C00000624  1
    X00002810  C00001360  1
    X00002810  C00001641  1
    X00002811  C00000631  1
    X00002811  C00001351  1
    X00002811  C00001642  -1
    X00002812  C00000638  1
    X00002812  C00001352  1
    X00002812  C00001642  1
    X00002813  C00000645  1
    X00002813  C00001353  1
    X00002813  C00001642  1
    X00002814  C00000652  1
    X00002814  C00001354  1
    X00002814  C00001642  1
    X00002815  C00000659  1
    X00002815  C00001355  1
    X00002815  C00001642  1
    X00002816  C00000666  1
    X00002816  C00001356  1
    X00002816  C00001642  1
    X00002817  C00000673  1
    X00002817  C00001357  1
    X00002817  C00001642  1
    X00002818  C00000680  1
    X00002818  C00001358  1
    X00002818  C00001642  1
    X00002819  C00000687  1
    X00002819  C00001359  1
    X00002819  C00001642  1
    X00002820  C00000694  1
    X00002820  C00001360  1
    X00002820  C00001642  1
    X00002821  C00000701  1
    X00002821  C00001351  1
    X00002821  C00001643  -1
    X00002822  C00000708  1
    X00002822  C00001352  1
    X00002822  C00001643  1
    X00002823  C00000715  1
    X00002823  C00001353  1
    X00002823  C00001643  1
    X00002824  C00000722  1
    X00002824  C00001354  1
    X00002824  C00001643  1
    X00002825  C00000729  1
    X00002825  C00001355  1
    X00002825  C00001643  1
    X00002826  C00000736  1
    X00002826  C00001356  1
    X00002826  C00001643  1
    X00002827  C00000743  1
    X00002827  C00001357  1
    X00002827  C00001643  1
    X00002828  C00000750  1
    X00002828  C00001358  1
    X00002828  C00001643  1
    X00002829  C00000757  1
    X00002829  C00001359  1
    X00002829  C00001643  1
    X00002830  C00000764  1
    X00002830  C00001360  1
    X00002830  C00001643  1
    X00002831  C00000771  1
    X00002831  C00001351  1
    X00002831  C00001644  -1
    X00002832  C00000778  1
    X00002832  C00001352  1
    X00002832  C00001644  1
    X00002833  C00000785  1
    X00002833  C00001353  1
    X00002833  C00001644  1
    X00002834  C00000792  1
    X00002834  C00001354  1
    X00002834  C00001644  1
    X00002835  C00000799  1
    X00002835  C00001355  1
    X00002835  C00001644  1
    X00002836  C00000806  1
    X00002836  C00001356  1
    X00002836  C00001644  1
    X00002837  C00000813  1
    X00002837  C00001357  1
    X00002837  C00001644  1
    X00002838  C00000820  1
    X00002838  C00001358  1
    X00002838  C00001644  1
    X00002839  C00000827  1
    X00002839  C00001359  1
    X00002839  C00001644  1
    X00002840  C00000834  1
    X00002840  C00001360  1
    X00002840  C00001644  1
    X00002841  C00000841  1
    X00002841  C00001351  1
    X00002841  C00001645  -1
    X00002842  C00000848  1
    X00002842  C00001352  1
    X00002842  C00001645  1
    X00002843  C00000855  1
    X00002843  C00001353  1
    X00002843  C00001645  1
    X00002844  C00000862  1
    X00002844  C00001354  1
    X00002844  C00001645  1
    X00002845  C00000869  1
    X00002845  C00001355  1
    X00002845  C00001645  1
    X00002846  C00000876  1
    X00002846  C00001356  1
    X00002846  C00001645  1
    X00002847  C00000883  1
    X00002847  C00001357  1
    X00002847  C00001645  1
    X00002848  C00000890  1
    X00002848  C00001358  1
    X00002848  C00001645  1
    X00002849  C00000897  1
    X00002849  C00001359  1
    X00002849  C00001645  1
    X00002850  C00000904  1
    X00002850  C00001360  1
    X00002850  C00001645  1
    X00002851  C00000911  1
    X00002851  C00001351  1
    X00002851  C00001646  -1
    X00002852  C00000918  1
    X00002852  C00001352  1
    X00002852  C00001646  1
    X00002853  C00000925  1
    X00002853  C00001353  1
    X00002853  C00001646  1
    X00002854  C00000932  1
    X00002854  C00001354  1
    X00002854  C00001646  1
    X00002855  C00000939  1
    X00002855  C00001355  1
    X00002855  C00001646  1
    X00002856  C00000946  1
    X00002856  C00001356  1
    X00002856  C00001646  1
    X00002857  C00000953  1
    X00002857  C00001357  1
    X00002857  C00001646  1
    X00002858  C00000960  1
    X00002858  C00001358  1
    X00002858  C00001646  1
    X00002859  C00000967  1
    X00002859  C00001359  1
    X00002859  C00001646  1
    X00002860  C00000974  1
    X00002860  C00001360  1
    X00002860  C00001646  1
    X00002861  C00000981  1
    X00002861  C00001351  1
    X00002861  C00001647  -1
    X00002862  C00000988  1
    X00002862  C00001352  1
    X00002862  C00001647  1
    X00002863  C00000995  1
    X00002863  C00001353  1
    X00002863  C00001647  1
    X00002864  C00001002  1
    X00002864  C00001354  1
    X00002864  C00001647  1
    X00002865  C00001009  1
    X00002865  C00001355  1
    X00002865  C00001647  1
    X00002866  C00001016  1
    X00002866  C00001356  1
    X00002866  C00001647  1
    X00002867  C00001023  1
    X00002867  C00001357  1
    X00002867  C00001647  1
    X00002868  C00001030  1
    X00002868  C00001358  1
    X00002868  C00001647  1
    X00002869  C00001037  1
    X00002869  C00001359  1
    X00002869  C00001647  1
    X00002870  C00001044  1
    X00002870  C00001360  1
    X00002870  C00001647  1
    X00002871  C00001051  1
    X00002871  C00001351  1
    X00002871  C00001648  -1
    X00002872  C00001058  1
    X00002872  C00001352  1
    X00002872  C00001648  1
    X00002873  C00001065  1
    X00002873  C00001353  1
    X00002873  C00001648  1
    X00002874  C00001072  1
    X00002874  C00001354  1
    X00002874  C00001648  1
    X00002875  C00001079  1
    X00002875  C00001355  1
    X00002875  C00001648  1
    X00002876  C00001086  1
    X00002876  C00001356  1
    X00002876  C00001648  1
    X00002877  C00001093  1
    X00002877  C00001357  1
    X00002877  C00001648  1
    X00002878  C00001100  1
    X00002878  C00001358  1
    X00002878  C00001648  1
    X00002879  C00001107  1
    X00002879  C00001359  1
    X00002879  C00001648  1
    X00002880  C00001114  1
    X00002880  C00001360  1
    X00002880  C00001648  1
    X00002881  C00001121  1
    X00002881  C00001351  1
    X00002881  C00001649  -1
    X00002882  C00001128  1
    X00002882  C00001352  1
    X00002882  C00001649  1
    X00002883  C00001135  1
    X00002883  C00001353  1
    X00002883  C00001649  1
    X00002884  C00001142  1
    X00002884  C00001354  1
    X00002884  C00001649  1
    X00002885  C00001149  1
    X00002885  C00001355  1
    X00002885  C00001649  1
    X00002886  C00001156  1
    X00002886  C00001356  1
    X00002886  C00001649  1
    X00002887  C00001163  1
    X00002887  C00001357  1
    X00002887  C00001649  1
    X00002888  C00001170  1
    X00002888  C00001358  1
    X00002888  C00001649  1
    X00002889  C00001177  1
    X00002889  C00001359  1
    X00002889  C00001649  1
    X00002890  C00001184  1
    X00002890  C00001360  1
    X00002890  C00001649  1
QUADOBJ
    X00000001  X00000001  9.2883280000000003e-12
    X00000002  X00000002  3.353252e-11
    X00000003  X00000003  7.9292080000000004e-10
    X00000004  X00000004  1.367054e-09
    X00000005  X00000005  5.5368080000000002e-08
    X00000006  X00000006  1.5920269999999999e-11
    X00000007  X00000007  3.8694979999999997e-09
    X00000008  X00000008  1.028479e-08
    X00000009  X00000009  7.8982700000000003e-11
    X00000010  X00000010  2
    X00000011  X00000011  1.083829e-10
    X00000012  X00000012  2.1626019999999999e-06
    X00000013  X00000013  2
    X00000014  X00000014  7.4990339999999996e-07
    X00000015  X00000015  2
    X00000016  X00000016  1.115928e-10
    X00000017  X00000017  2
    X00000018  X00000018  2
    X00000019  X00000019  3.793476e-09
    X00000020  X00000020  2
    X00000021  X00000021  3.7734220000000003e-08
    X00000022  X00000022  2
    X00000023  X00000023  1.6166840000000001e-06
    X00000024  X00000024  1.1714400000000001e-07
    X00000025  X00000025  2
    X00000026  X00000026  2
    X00000027  X00000027  2
    X00000028  X00000028  2
    X00000029  X00000029  5.7649839999999999e-08
    X00000030  X00000030  2
    X00000031  X00000031  2.9420799999999998e-09
    X00000032  X00000032  6.7958320000000002e-08
    X00000033  X00000033  1.082632e-08
    X00000034  X00000034  1.6709e-07
    X00000035  X00000035  2
    X00000036  X00000036  5.7110719999999998e-08
    X00000037  X00000037  2
    X00000038  X00000038  2
    X00000039  X00000039  4.7774079999999997e-09
    X00000040  X00000040  2
    X00000041  X00000041  1.618673e-11
    X00000042  X00000042  1.6367949999999999e-10
    X00000043  X00000043  2.968398e-09
    X00000044  X00000044  1.690817e-08
    X00000045  X00000045  1.396775e-07
    X00000046  X00000046  1.858874e-11
    X00000047  X00000047  2
    X00000048  X00000048  2
    X00000049  X00000049  6.8020040000000001e-10
    X00000050  X00000050  2
    X00000051  X00000051  3.1278540000000001e-09
    X00000052  X00000052  2
    X00000053  X00000053  3.0961420000000003e-08
    X00000054  X00000054  6.1838519999999995e-08
    X00000055  X00000055  2
    X00000056  X00000056  2
    X00000057  X00000057  2
    X00000058  X00000058  2
    X00000059  X00000059  3.6867920000000001e-09
    X00000060  X00000060  2
    X00000061  X00000061  3.6977800000000002e-10
    X00000062  X00000062  2.2544160000000001e-09
    X00000063  X00000063  1.9166999999999998e-09
    X00000064  X00000064  5.4590219999999998e-09
    X00000065  X00000065  2
    X00000066  X00000066  4.4005080000000002e-08
    X00000067  X00000067  2
    X00000068  X00000068  8.2980660000000004e-08
    X00000069  X00000069  6.5743419999999997e-10
    X00000070  X00000070  2
    X00000071  X00000071  4.3472780000000002e-11
    X00000072  X00000072  4.349792e-11
    X00000073  X00000073  2.9718999999999998e-07
    X00000074  X00000074  2.278296e-07
    X00000075  X00000075  2
    X00000076  X00000076  2
    X00000077  X00000077  2
    X00000078  X00000078  2
    X00000079  X00000079  1.801055e-07
    X00000080  X00000080  2
    X00000081  X00000081  1.581853e-10
    X00000082  X00000082  5.9379079999999998e-08
    X00000083  X00000083  2.4489099999999998e-06
    X00000084  X00000084  3.0071659999999997e-08
    X00000085  X00000085  6.1614300000000004e-07
    X00000086  X00000086  2
    X00000087  X00000087  2
    X00000088  X00000088  4.0369959999999997e-08
    X00000089  X00000089  1.6013320000000001e-10
    X00000090  X00000090  2
    X00000091  X00000091  3.2504620000000002e-09
    X00000092  X00000092  3.5408440000000003e-08
    X00000093  X00000093  6.5696759999999999e-08
    X00000094  X00000094  5.0755879999999996e-09
    X00000095  X00000095  2.6904440000000001e-06
    X00000096  X00000096  2
    X00000097  X00000097  2
    X00000098  X00000098  2
    X00000099  X00000099  1.4971849999999999e-08
    X00000100  X00000100  2
    X00000101  X00000101  1.678571e-09
    X00000102  X00000102  6.1388479999999999e-09
    X00000103  X00000103  2
    X00000104  X00000104  2.4946119999999999e-08
    X00000105  X00000105  7.9315340000000003e-07
    X00000106  X00000106  6.500872e-08
    X00000107  X00000107  3.8728999999999997e-09
    X00000108  X00000108  8.6173459999999999e-07
    X00000109  X00000109  8.5650899999999998e-09
    X00000110  X00000110  2
    X00000111  X00000111  2.8051440000000001e-09
    X00000112  X00000112  1.548455e-07
    X00000113  X00000113  3.9092660000000001e-09
    X00000114  X00000114  1.5282810000000001e-08
    X00000115  X00000115  1.334641e-07
    X00000116  X00000116  2
    X00000117  X00000117  4.4086940000000001e-06
    X00000118  X00000118  2
    X00000119  X00000119  4.7449359999999999e-08
    X00000120  X00000120  2
    X00000121  X00000121  1.079844e-08
    X00000122  X00000122  9.2384720000000006e-08
    X00000123  X00000123  4.0534400000000001e-07
    X00000124  X00000124  3.2579720000000001e-08
    X00000125  X00000125  6.5151240000000003e-06
    X00000126  X00000126  2
    X00000127  X00000127  2
    X00000128  X00000128  3.7404500000000001e-07
    X00000129  X00000129  2.1837039999999998e-08
    X00000130  X00000130  2
    X00000131  X00000131  4.7484400000000002e-09
    X00000132  X00000132  3.9215539999999998e-08
    X00000133  X00000133  2
    X00000134  X00000134  1.6418070000000001e-08
    X00000135  X00000135  2
    X00000136  X00000136  2
    X00000137  X00000137  2
    X00000138  X00000138  1.767565e-08
    X00000139  X00000139  1.479027e-08
    X00000140  X00000140  2
    X00000141  X00000141  4.7448899999999998e-08
    X00000142  X00000142  1.4529079999999999e-07
    X00000143  X00000143  2
    X00000144  X00000144  1.8038659999999999e-07
    X00000145  X00000145  2
    X00000146  X00000146  2
    X00000147  X00000147  2
    X00000148  X00000148  2
    X00000149  X00000149  1.1562160000000001e-07
    X00000150  X00000150  2
    X00000151  X00000151  4.2421320000000001e-10
    X00000152  X00000152  1.5906719999999999e-07
    X00000153  X00000153  2
    X00000154  X00000154  5.046248e-08
    X00000155  X00000155  2
    X00000156  X00000156  2
    X00000157  X00000157  2
    X00000158  X00000158  2
    X00000159  X00000159  4.289628e-10
    X00000160  X00000160  2
    X00000161  X00000161  2
    X00000162  X00000162  2
    X00000163  X00000163  2
    X00000164  X00000164  2
    X00000165  X00000165  2
    X00000166  X00000166  2
    X00000167  X00000167  2
    X00000168  X00000168  2
    X00000169  X00000169  2
    X00000170  X00000170  2
    X00000171  X00000171  5.1150380000000001e-10
    X00000172  X00000172  3.5039519999999999e-09
    X00000173  X00000173  1.164239e-08
    X00000174  X00000174  1.5615969999999999e-09
    X00000175  X00000175  1.4917689999999999e-07
    X00000176  X00000176  2
    X00000177  X00000177  3.8728999999999997e-09
    X00000178  X00000178  1.0361139999999999e-08
    X00000179  X00000179  1.7183750000000001e-09
    X00000180  X00000180  2
    X00000181  X00000181  6.2302960000000002e-07
    X00000182  X00000182  2.1626019999999999e-06
    X00000183  X00000183  2
    X00000184  X00000184  8.7515859999999996e-07
    X00000185  X00000185  2
    X00000186  X00000186  2
    X00000187  X00000187  2
    X00000188  X00000188  2
    X00000189  X00000189  2
    X00000190  X00000190  2
    X00000191  X00000191  1.1481780000000001e-07
    X00000192  X00000192  2
    X00000193  X00000193  1.6166840000000001e-06
    X00000194  X00000194  1.235956e-07
    X00000195  X00000195  2
    X00000196  X00000196  2
    X00000197  X00000197  2
    X00000198  X00000198  2
    X00000199  X00000199  2
    X00000200  X00000200  2
    X00000201  X00000201  4.5044339999999999e-08
    X00000202  X00000202  6.7958320000000002e-08
    X00000203  X00000203  2
    X00000204  X00000204  1.8204659999999999e-07
    X00000205  X00000205  2
    X00000206  X00000206  2
    X00000207  X00000207  2
    X00000208  X00000208  2
    X00000209  X00000209  5.0192120000000005e-07
    X00000210  X00000210  2
    X00000211  X00000211  1.4851889999999999e-08
    X00000212  X00000212  1.52973e-07
    X00000213  X00000213  2
    X00000214  X00000214  1.7878049999999999e-08
    X00000215  X00000215  1.760749e-06
    X00000216  X00000216  2
    X00000217  X00000217  2
    X00000218  X00000218  2
    X00000219  X00000219  2.329846e-07
    X00000220  X00000220  2
    X00000221  X00000221  3.1892340000000002e-09
    X00000222  X00000222  2
    X00000223  X00000223  3.7928920000000003e-08
    X00000224  X00000224  6.2692200000000001e-08
    X00000225  X00000225  2
    X00000226  X00000226  2
    X00000227  X00000227  2
    X00000228  X00000228  2
    X00000229  X00000229  3.6867920000000001e-09
    X00000230  X00000230  2
    X00000231  X00000231  4.0547299999999997e-09
    X00000232  X00000232  6.7313779999999999e-08
    X00000233  X00000233  2.1524560000000001e-08
    X00000234  X00000234  7.0015760000000001e-09
    X00000235  X00000235  2
    X00000236  X00000236  2
    X00000237  X00000237  2
    X00000238  X00000238  8.8222320000000004e-08
    X00000239  X00000239  3.2101080000000003e-08
    X00000240  X00000240  2
    X00000241  X00000241  5.9663739999999994e-08
    X00000242  X00000242  2.286138e-07
    X00000243  X00000243  3.1661560000000001e-07
    X00000244  X00000244  2.278296e-07
    X00000245  X00000245  2
    X00000246  X00000246  2
    X00000247  X00000247  2
    X00000248  X00000248  2
    X00000249  X00000249  2.0666479999999999e-07
    X00000250  X00000250  2
    X00000251  X00000251  5.9132580000000001e-09
    X00000252  X00000252  5.9379079999999998e-08
    X00000253  X00000253  2.4489099999999998e-06
    X00000254  X00000254  3.2679999999999999e-08
    X00000255  X00000255  6.1614300000000004e-07
    X00000256  X00000256  2
    X00000257  X00000257  2
    X00000258  X00000258  4.0369959999999997e-08
    X00000259  X00000259  1.0540909999999999e-08
    X00000260  X00000260  2
    X00000261  X00000261  4.016508e-09
    X00000262  X00000262  1.030052e-07
    X00000263  X00000263  1.5583610000000001e-07
    X00000264  X00000264  5.3042099999999998e-09
    X00000265  X00000265  2.6904440000000001e-06
    X00000266  X00000266  2
    X00000267  X00000267  2
    X00000268  X00000268  2
    X00000269  X00000269  2.2755020000000001e-08
    X00000270  X00000270  2
    X00000271  X00000271  2.0843879999999999e-09
    X00000272  X00000272  6.1462240000000003e-09
    X00000273  X00000273  2
    X00000274  X00000274  3.5024120000000002e-08
    X00000275  X00000275  7.9315340000000003e-07
    X00000276  X00000276  2
    X00000277  X00000277  3.8728999999999997e-09
    X00000278  X00000278  8.6173459999999999e-07
    X00000279  X00000279  3.587026e-08
    X00000280  X00000280  2
    X00000281  X00000281  1.6634920000000001e-08
    X00000282  X00000282  1.548455e-07
    X00000283  X00000283  2
    X00000284  X00000284  2.3373720000000001e-08
    X00000285  X00000285  3.667612e-07
    X00000286  X00000286  2
    X00000287  X00000287  2
    X00000288  X00000288  2
    X00000289  X00000289  1.227468e-07
    X00000290  X00000290  2
    X00000291  X00000291  1.3152440000000001e-08
    X00000292  X00000292  9.9313239999999994e-08
    X00000293  X00000293  4.0534400000000001e-07
    X00000294  X00000294  3.2579720000000001e-08
    X00000295  X00000295  6.5151240000000003e-06
    X00000296  X00000296  2
    X00000297  X00000297  2
    X00000298  X00000298  3.7404500000000001e-07
    X00000299  X00000299  3.3361700000000002e-08
    X00000300  X00000300  2
    X00000301  X00000301  5.179414e-09
    X00000302  X00000302  3.9215539999999998e-08
    X00000303  X00000303  2
    X00000304  X00000304  1.6418070000000001e-08
    X00000305  X00000305  2
    X00000306  X00000306  2
    X00000307  X00000307  2
    X00000308  X00000308  1.767565e-08
    X00000309  X00000309  1.9964660000000001e-08
    X00000310  X00000310  2
    X00000311  X00000311  4.9521740000000002e-08
    X00000312  X00000312  1.4529079999999999e-07
    X00000313  X00000313  2
    X00000314  X00000314  2.145236e-07
    X00000315  X00000315  2
    X00000316  X00000316  2
    X00000317  X00000317  2
    X00000318  X00000318  2
    X00000319  X00000319  1.1562160000000001e-07
    X00000320  X00000320  2
    X00000321  X00000321  3.2276800000000001e-08
    X00000322  X00000322  1.5906719999999999e-07
    X00000323  X00000323  2
    X00000324  X00000324  5.046248e-08
    X00000325  X00000325  2
    X00000326  X00000326  2
    X00000327  X00000327  2
    X00000328  X00000328  2
    X00000329  X00000329  2.0497380000000001e-07
    X00000330  X00000330  2
    X00000331  X00000331  2
    X00000332  X00000332  2
    X00000333  X00000333  2
    X00000334  X00000334  2
    X00000335  X00000335  2
    X00000336  X00000336  2
    X00000337  X00000337  2
    X00000338  X00000338  2
    X00000339  X00000339  2
    X00000340  X00000340  2
    X00000341  X00000341  9.8600360000000002e-10
    X00000342  X00000342  4.2471960000000004e-09
    X00000343  X00000343  3.355598e-08
    X00000344  X00000344  3.7306260000000003e-09
    X00000345  X00000345  2.165806e-07
    X00000346  X00000346  2
    X00000347  X00000347  3.8728999999999997e-09
    X00000348  X00000348  1.112941e-07
    X00000349  X00000349  4.7827559999999997e-09
    X00000350  X00000350  2
    X00000351  X00000351  6.2302960000000002e-07
    X00000352  X00000352  2.1626019999999999e-06
    X00000353  X00000353  2
    X00000354  X00000354  8.7515859999999996e-07
    X00000355  X00000355  2
    X00000356  X00000356  2
    X00000357  X00000357  2
    X00000358  X00000358  2
    X00000359  X00000359  2
    X00000360  X00000360  2
    X00000361  X00000361  1.1481780000000001e-07
    X00000362  X00000362  2
    X00000363  X00000363  1.6166840000000001e-06
    X00000364  X00000364  1.235956e-07
    X00000365  X00000365  2
    X00000366  X00000366  2
    X00000367  X00000367  2
    X00000368  X00000368  2
    X00000369  X00000369  2
    X00000370  X00000370  2
    X00000371  X00000371  4.5044339999999999e-08
    X00000372  X00000372  6.7958320000000002e-08
    X00000373  X00000373  2
    X00000374  X00000374  1.8204659999999999e-07
    X00000375  X00000375  2
    X00000376  X00000376  2
    X00000377  X00000377  2
    X00000378  X00000378  2
    X00000379  X00000379  5.0192120000000005e-07
    X00000380  X00000380  2
    X00000381  X00000381  1.5152549999999999e-08
    X00000382  X00000382  1.52973e-07
    X00000383  X00000383  2
    X00000384  X00000384  1.831569e-08
    X00000385  X00000385  1.760749e-06
    X00000386  X00000386  2
    X00000387  X00000387  2
    X00000388  X00000388  2
    X00000389  X00000389  2.329846e-07
    X00000390  X00000390  2
    X00000391  X00000391  7.1412500000000005e-08
    X00000392  X00000392  2
    X00000393  X00000393  2
    X00000394  X00000394  7.1412500000000005e-08
    X00000395  X00000395  2
    X00000396  X00000396  2
    X00000397  X00000397  2
    X00000398  X00000398  2
    X00000399  X00000399  2
    X00000400  X00000400  2
    X00000401  X00000401  1.207926e-08
    X00000402  X00000402  3.163906e-07
    X00000403  X00000403  3.7431659999999998e-08
    X00000404  X00000404  4.4368140000000002e-08
    X00000405  X00000405  2
    X00000406  X00000406  2
    X00000407  X00000407  2
    X00000408  X00000408  2
    X00000409  X00000409  3.2924999999999999e-08
    X00000410  X00000410  2
    X00000411  X00000411  6.3709899999999998e-07
    X00000412  X00000412  2
    X00000413  X00000413  2
    X00000414  X00000414  6.3709899999999998e-07
    X00000415  X00000415  2
    X00000416  X00000416  2
    X00000417  X00000417  2
    X00000418  X00000418  2
    X00000419  X00000419  2
    X00000420  X00000420  2
    X00000421  X00000421  7.6816420000000006e-09
    X00000422  X00000422  7.8253379999999995e-08
    X00000423  X00000423  2
    X00000424  X00000424  4.4459960000000003e-08
    X00000425  X00000425  1.8649759999999999e-06
    X00000426  X00000426  2
    X00000427  X00000427  2
    X00000428  X00000428  2
    X00000429  X00000429  1.059619e-08
    X00000430  X00000430  2
    X00000431  X00000431  6.447662e-08
    X00000432  X00000432  2
    X00000433  X00000433  2
    X00000434  X00000434  2.71624e-07
    X00000435  X00000435  2
    X00000436  X00000436  2
    X00000437  X00000437  2
    X00000438  X00000438  2
    X00000439  X00000439  8.4545860000000003e-08
    X00000440  X00000440  2
    X00000441  X00000441  2.1731280000000001e-09
    X00000442  X00000442  6.1462240000000003e-09
    X00000443  X00000443  2
    X00000444  X00000444  3.6180439999999998e-08
    X00000445  X00000445  1.035652e-06
    X00000446  X00000446  2
    X00000447  X00000447  3.8728999999999997e-09
    X00000448  X00000448  8.6173459999999999e-07
    X00000449  X00000449  1.053191e-07
    X00000450  X00000450  2
    X00000451  X00000451  1.9692020000000002e-08
    X00000452  X00000452  4.6486980000000002e-07
    X00000453  X00000453  2
    X00000454  X00000454  2.5736160000000001e-08
    X00000455  X00000455  4.1770840000000002e-07
    X00000456  X00000456  2
    X00000457  X00000457  2
    X00000458  X00000458  2
    X00000459  X00000459  1.354867e-07
    X00000460  X00000460  2
    X00000461  X00000461  1.3152440000000001e-08
    X00000462  X00000462  9.9313239999999994e-08
    X00000463  X00000463  4.0534400000000001e-07
    X00000464  X00000464  3.2579720000000001e-08
    X00000465  X00000465  6.5151240000000003e-06
    X00000466  X00000466  2
    X00000467  X00000467  2
    X00000468  X00000468  3.7404500000000001e-07
    X00000469  X00000469  3.3361700000000002e-08
    X00000470  X00000470  2
    X00000471  X00000471  2.9197639999999999e-08
    X00000472  X00000472  1.030498e-07
    X00000473  X00000473  2
    X00000474  X00000474  7.3826899999999998e-08
    X00000475  X00000475  2
    X00000476  X00000476  2
    X00000477  X00000477  2
    X00000478  X00000478  1.9412760000000001e-07
    X00000479  X00000479  1.709738e-07
    X00000480  X00000480  2
    X00000481  X00000481  4.9521740000000002e-08
    X00000482  X00000482  1.4529079999999999e-07
    X00000483  X00000483  2
    X00000484  X00000484  2.145236e-07
    X00000485  X00000485  2
    X00000486  X00000486  2
    X00000487  X00000487  2
    X00000488  X00000488  2
    X00000489  X00000489  1.1562160000000001e-07
    X00000490  X00000490  2
    X00000491  X00000491  3.3100479999999999e-08
    X00000492  X00000492  1.5906719999999999e-07
    X00000493  X00000493  2
    X00000494  X00000494  5.2505280000000003e-08
    X00000495  X00000495  2
    X00000496  X00000496  2
    X00000497  X00000497  2
    X00000498  X00000498  2
    X00000499  X00000499  2.0497380000000001e-07
    X00000500  X00000500  2
    X00000501  X00000501  2
    X00000502  X00000502  2
    X00000503  X00000503  2
    X00000504  X00000504  2
    X00000505  X00000505  2
    X00000506  X00000506  2
    X00000507  X00000507  2
    X00000508  X00000508  2
    X00000509  X00000509  2
    X00000510  X00000510  2
    X00000511  X00000511  1.0628909999999999e-09
    X00000512  X00000512  2.002304e-08
    X00000513  X00000513  1.7827850000000001e-08
    X00000514  X00000514  2.6858659999999999e-09
    X00000515  X00000515  4.7932779999999995e-07
    X00000516  X00000516  2
    X00000517  X00000517  2
    X00000518  X00000518  1.142472e-08
    X00000519  X00000519  2.6819719999999998e-09
    X00000520  X00000520  2
    X00000521  X00000521  2
    X00000522  X00000522  2
    X00000523  X00000523  2
    X00000524  X00000524  2
    X00000525  X00000525  2
    X00000526  X00000526  2
    X00000527  X00000527  2
    X00000528  X00000528  2
    X00000529  X00000529  2
    X00000530  X00000530  2
    X00000531  X00000531  2
    X00000532  X00000532  2
    X00000533  X00000533  2
    X00000534  X00000534  2
    X00000535  X00000535  2
    X00000536  X00000536  2
    X00000537  X00000537  2
    X00000538  X00000538  2
    X00000539  X00000539  2
    X00000540  X00000540  2
    X00000541  X00000541  2
    X00000542  X00000542  2
    X00000543  X00000543  2
    X00000544  X00000544  2
    X00000545  X00000545  2
    X00000546  X00000546  2
    X00000547  X00000547  2
    X00000548  X00000548  2
    X00000549  X00000549  2
    X00000550  X00000550  2
    X00000551  X00000551  7.4832100000000005e-07
    X00000552  X00000552  2
    X00000553  X00000553  2
    X00000554  X00000554  7.4832100000000005e-07
    X00000555  X00000555  2
    X00000556  X00000556  2
    X00000557  X00000557  2
    X00000558  X00000558  2
    X00000559  X00000559  2
    X00000560  X00000560  2
    X00000561  X00000561  3.3383240000000001e-09
    X00000562  X00000562  2
    X00000563  X00000563  3.7928920000000003e-08
    X00000564  X00000564  5.1339840000000005e-07
    X00000565  X00000565  2
    X00000566  X00000566  2
    X00000567  X00000567  2
    X00000568  X00000568  2
    X00000569  X00000569  3.6867920000000001e-09
    X00000570  X00000570  2
    X00000571  X00000571  6.1035519999999999e-09
    X00000572  X00000572  8.5505539999999997e-08
    X00000573  X00000573  5.0650480000000001e-08
    X00000574  X00000574  8.3135200000000001e-09
    X00000575  X00000575  2
    X00000576  X00000576  2
    X00000577  X00000577  2
    X00000578  X00000578  8.8222320000000004e-08
    X00000579  X00000579  1.282775e-06
    X00000580  X00000580  2
    X00000581  X00000581  6.582846e-08
    X00000582  X00000582  2.286138e-07
    X00000583  X00000583  3.1661560000000001e-07
    X00000584  X00000584  3.5465639999999999e-07
    X00000585  X00000585  2
    X00000586  X00000586  2
    X00000587  X00000587  2
    X00000588  X00000588  2
    X00000589  X00000589  2.0666479999999999e-07
    X00000590  X00000590  2
    X00000591  X00000591  2.568644e-08
    X00000592  X00000592  2.4618619999999999e-07
    X00000593  X00000593  2.4489099999999998e-06
    X00000594  X00000594  1.2334180000000001e-07
    X00000595  X00000595  9.2013239999999999e-07
    X00000596  X00000596  2
    X00000597  X00000597  2
    X00000598  X00000598  4.0369959999999997e-08
    X00000599  X00000599  2.018398e-06
    X00000600  X00000600  2
    X00000601  X00000601  4.2833240000000001e-09
    X00000602  X00000602  1.030052e-07
    X00000603  X00000603  1.5583610000000001e-07
    X00000604  X00000604  5.4098500000000003e-09
    X00000605  X00000605  2.6904440000000001e-06
    X00000606  X00000606  2
    X00000607  X00000607  2
    X00000608  X00000608  2
    X00000609  X00000609  3.1134759999999997e-08
    X00000610  X00000610  2
    X00000611  X00000611  5.104372e-08
    X00000612  X00000612  2
    X00000613  X00000613  2
    X00000614  X00000614  1.0958660000000001e-06
    X00000615  X00000615  3.3873679999999999e-06
    X00000616  X00000616  2
    X00000617  X00000617  2
    X00000618  X00000618  2
    X00000619  X00000619  5.4397199999999998e-08
    X00000620  X00000620  2
    X00000621  X00000621  1.0714959999999999e-07
    X00000622  X00000622  2.3218640000000001e-07
    X00000623  X00000623  2
    X00000624  X00000624  2.5463139999999999e-07
    X00000625  X00000625  3.0070120000000001e-06
    X00000626  X00000626  2
    X00000627  X00000627  2
    X00000628  X00000628  2
    X00000629  X00000629  1.3053809999999999e-06
    X00000630  X00000630  2
    X00000631  X00000631  2
    X00000632  X00000632  2
    X00000633  X00000633  2
    X00000634  X00000634  2
    X00000635  X00000635  2
    X00000636  X00000636  2
    X00000637  X00000637  2
    X00000638  X00000638  2
    X00000639  X00000639  2
    X00000640  X00000640  2
    X00000641  X00000641  6.296338e-09
    X00000642  X00000642  6.3307159999999997e-08
    X00000643  X00000643  2
    X00000644  X00000644  2.11134e-08
    X00000645  X00000645  2
    X00000646  X00000646  2
    X00000647  X00000647  2
    X00000648  X00000648  1.944636e-08
    X00000649  X00000649  2.2604199999999999e-08
    X00000650  X00000650  2
    X00000651  X00000651  2
    X00000652  X00000652  2
    X00000653  X00000653  2
    X00000654  X00000654  2
    X00000655  X00000655  2
    X00000656  X00000656  2
    X00000657  X00000657  2
    X00000658  X00000658  2
    X00000659  X00000659  2
    X00000660  X00000660  2
    X00000661  X00000661  1.2970339999999999e-06
    X00000662  X00000662  2
    X00000663  X00000663  2
    X00000664  X00000664  1.2970339999999999e-06
    X00000665  X00000665  2
    X00000666  X00000666  2
    X00000667  X00000667  2
    X00000668  X00000668  2
    X00000669  X00000669  2
    X00000670  X00000670  2
    X00000671  X00000671  2
    X00000672  X00000672  2
    X00000673  X00000673  2
    X00000674  X00000674  2
    X00000675  X00000675  2
    X00000676  X00000676  2
    X00000677  X00000677  2
    X00000678  X00000678  2
    X00000679  X00000679  2
    X00000680  X00000680  2
    X00000681  X00000681  7.7102480000000005e-09
    X00000682  X00000682  1.7073150000000001e-07
    X00000683  X00000683  2.4489099999999998e-06
    X00000684  X00000684  2.075824e-08
    X00000685  X00000685  7.2358120000000004e-07
    X00000686  X00000686  2
    X00000687  X00000687  2
    X00000688  X00000688  3.5241979999999999e-08
    X00000689  X00000689  2.1977519999999999e-08
    X00000690  X00000690  2
    X00000691  X00000691  2
    X00000692  X00000692  2
    X00000693  X00000693  2
    X00000694  X00000694  2
    X00000695  X00000695  2
    X00000696  X00000696  2
    X00000697  X00000697  2
    X00000698  X00000698  2
    X00000699  X00000699  2
    X00000700  X00000700  2
    X00000701  X00000701  2
    X00000702  X00000702  2
    X00000703  X00000703  2
    X00000704  X00000704  2
    X00000705  X00000705  2
    X00000706  X00000706  2
    X00000707  X00000707  2
    X00000708  X00000708  2
    X00000709  X00000709  2
    X00000710  X00000710  2
    X00000711  X00000711  2
    X00000712  X00000712  2
    X00000713  X00000713  2
    X00000714  X00000714  2
    X00000715  X00000715  2
    X00000716  X00000716  2
    X00000717  X00000717  2
    X00000718  X00000718  2
    X00000719  X00000719  2
    X00000720  X00000720  2
    X00000721  X00000721  7.4832100000000005e-07
    X00000722  X00000722  2
    X00000723  X00000723  2
    X00000724  X00000724  7.4832100000000005e-07
    X00000725  X00000725  2
    X00000726  X00000726  2
    X00000727  X00000727  2
    X00000728  X00000728  2
    X00000729  X00000729  2
    X00000730  X00000730  2
    X00000731  X00000731  2
    X00000732  X00000732  2
    X00000733  X00000733  2
    X00000734  X00000734  2
    X00000735  X00000735  2
    X00000736  X00000736  2
    X00000737  X00000737  2
    X00000738  X00000738  2
    X00000739  X00000739  2
    X00000740  X00000740  2
    X00000741  X00000741  1.7754110000000001e-07
    X00000742  X00000742  2
    X00000743  X00000743  2
    X00000744  X00000744  1.7754110000000001e-07
    X00000745  X00000745  2
    X00000746  X00000746  2
    X00000747  X00000747  2
    X00000748  X00000748  2
    X00000749  X00000749  2
    X00000750  X00000750  2
    X00000751  X00000751  2
    X00000752  X00000752  2
    X00000753  X00000753  2
    X00000754  X00000754  2
    X00000755  X00000755  2
    X00000756  X00000756  2
    X00000757  X00000757  2
    X00000758  X00000758  2
    X00000759  X00000759  2
    X00000760  X00000760  2
    X00000761  X00000761  2.568644e-08
    X00000762  X00000762  2.4618619999999999e-07
    X00000763  X00000763  2.4489099999999998e-06
    X00000764  X00000764  1.2334180000000001e-07
    X00000765  X00000765  9.2013239999999999e-07
    X00000766  X00000766  2
    X00000767  X00000767  2
    X00000768  X00000768  4.0369959999999997e-08
    X00000769  X00000769  2.018398e-06
    X00000770  X00000770  2
    X00000771  X00000771  4.0273059999999999e-08
    X00000772  X00000772  2
    X00000773  X00000773  2
    X00000774  X00000774  4.0273059999999999e-08
    X00000775  X00000775  2
    X00000776  X00000776  2
    X00000777  X00000777  2
    X00000778  X00000778  2
    X00000779  X00000779  2
    X00000780  X00000780  2
    X00000781  X00000781  9.1597319999999998e-07
    X00000782  X00000782  2
    X00000783  X00000783  2
    X00000784  X00000784  1.2554610000000001e-06
    X00000785  X00000785  3.3873679999999999e-06
    X00000786  X00000786  2
    X00000787  X00000787  2
    X00000788  X00000788  2
    X00000789  X00000789  2
    X00000790  X00000790  2
    X00000791  X00000791  1.774465e-07
    X00000792  X00000792  1.061351e-06
    X00000793  X00000793  2
    X00000794  X00000794  2.5463139999999999e-07
    X00000795  X00000795  2
    X00000796  X00000796  2
    X00000797  X00000797  2
    X00000798  X00000798  2
    X00000799  X00000799  1.3053809999999999e-06
    X00000800  X00000800  2
    X00000801  X00000801  2
    X00000802  X00000802  2
    X00000803  X00000803  2
    X00000804  X00000804  2
    X00000805  X00000805  2
    X00000806  X00000806  2
    X00000807  X00000807  2
    X00000808  X00000808  2
    X00000809  X00000809  2
    X00000810  X00000810  2
    X00000811  X00000811  1.9429169999999999e-08
    X00000812  X00000812  1.1723599999999999e-06
    X00000813  X00000813  2
    X00000814  X00000814  3.6074640000000001e-07
    X00000815  X00000815  2
    X00000816  X00000816  2
    X00000817  X00000817  2
    X00000818  X00000818  2.774444e-07
    X00000819  X00000819  2.2604199999999999e-08
    X00000820  X00000820  2
    X00000821  X00000821  2
    X00000822  X00000822  2
    X00000823  X00000823  2
    X00000824  X00000824  2
    X00000825  X00000825  2
    X00000826  X00000826  2
    X00000827  X00000827  2
    X00000828  X00000828  2
    X00000829  X00000829  2
    X00000830  X00000830  2
    X00000831  X00000831  1.2970339999999999e-06
    X00000832  X00000832  2
    X00000833  X00000833  2
    X00000834  X00000834  1.2970339999999999e-06
    X00000835  X00000835  2
    X00000836  X00000836  2
    X00000837  X00000837  2
    X00000838  X00000838  2
    X00000839  X00000839  2
    X00000840  X00000840  2
    X00000841  X00000841  2
    X00000842  X00000842  2
    X00000843  X00000843  2
    X00000844  X00000844  2
    X00000845  X00000845  2
    X00000846  X00000846  2
    X00000847  X00000847  2
    X00000848  X00000848  2
    X00000849  X00000849  2
    X00000850  X00000850  2
    X00000851  X00000851  1.2328479999999999e-09
    X00000852  X00000852  2.2683299999999998e-08
    X00000853  X00000853  1.795864e-08
    X00000854  X00000854  3.0850340000000001e-09
    X00000855  X00000855  1.41997e-06
    X00000856  X00000856  2
    X00000857  X00000857  2
    X00000858  X00000858  1.690488e-08
    X00000859  X00000859  3.05475e-09
    X00000860  X00000860  2
    X00000861  X00000861  2
    X00000862  X00000862  2
    X00000863  X00000863  2
    X00000864  X00000864  2
    X00000865  X00000865  2
    X00000866  X00000866  2
    X00000867  X00000867  2
    X00000868  X00000868  2
    X00000869  X00000869  2
    X00000870  X00000870  2
    X00000871  X00000871  2
    X00000872  X00000872  2
    X00000873  X00000873  2
    X00000874  X00000874  2
    X00000875  X00000875  2
    X00000876  X00000876  2
    X00000877  X00000877  2
    X00000878  X00000878  2
    X00000879  X00000879  2
    X00000880  X00000880  2
    X00000881  X00000881  2
    X00000882  X00000882  2
    X00000883  X00000883  2
    X00000884  X00000884  2
    X00000885  X00000885  2
    X00000886  X00000886  2
    X00000887  X00000887  2
    X00000888  X00000888  2
    X00000889  X00000889  2
    X00000890  X00000890  2
    X00000891  X00000891  2
    X00000892  X00000892  2
    X00000893  X00000893  2
    X00000894  X00000894  2
    X00000895  X00000895  2
    X00000896  X00000896  2
    X00000897  X00000897  2
    X00000898  X00000898  2
    X00000899  X00000899  2
    X00000900  X00000900  2
    X00000901  X00000901  3.3383240000000001e-09
    X00000902  X00000902  2
    X00000903  X00000903  3.7928920000000003e-08
    X00000904  X00000904  5.1339840000000005e-07
    X00000905  X00000905  2
    X00000906  X00000906  2
    X00000907  X00000907  2
    X00000908  X00000908  2
    X00000909  X00000909  3.6867920000000001e-09
    X00000910  X00000910  2
    X00000911  X00000911  6.320852e-09
    X00000912  X00000912  8.5505539999999997e-08
    X00000913  X00000913  5.0650480000000001e-08
    X00000914  X00000914  8.7219320000000001e-09
    X00000915  X00000915  2
    X00000916  X00000916  2
    X00000917  X00000917  2
    X00000918  X00000918  8.8222320000000004e-08
    X00000919  X00000919  1.282775e-06
    X00000920  X00000920  2
    X00000921  X00000921  6.582846e-08
    X00000922  X00000922  2.286138e-07
    X00000923  X00000923  3.1661560000000001e-07
    X00000924  X00000924  3.5465639999999999e-07
    X00000925  X00000925  2
    X00000926  X00000926  2
    X00000927  X00000927  2
    X00000928  X00000928  2
    X00000929  X00000929  2.0666479999999999e-07
    X00000930  X00000930  2
    X00000931  X00000931  2
    X00000932  X00000932  2
    X00000933  X00000933  2
    X00000934  X00000934  2
    X00000935  X00000935  2
    X00000936  X00000936  2
    X00000937  X00000937  2
    X00000938  X00000938  2
    X00000939  X00000939  2
    X00000940  X00000940  2
    X00000941  X00000941  4.7931060000000002e-09
    X00000942  X00000942  1.030052e-07
    X00000943  X00000943  1.5583610000000001e-07
    X00000944  X00000944  6.2493160000000001e-09
    X00000945  X00000945  2.6904440000000001e-06
    X00000946  X00000946  2
    X00000947  X00000947  2
    X00000948  X00000948  2
    X00000949  X00000949  3.1134759999999997e-08
    X00000950  X00000950  2
    X00000951  X00000951  5.4056100000000003e-08
    X00000952  X00000952  2
    X00000953  X00000953  2
    X00000954  X00000954  8.6206520000000007e-06
    X00000955  X00000955  2
    X00000956  X00000956  2
    X00000957  X00000957  2
    X00000958  X00000958  2
    X00000959  X00000959  5.4397199999999998e-08
    X00000960  X00000960  2
    X00000961  X00000961  2.7047120000000002e-07
    X00000962  X00000962  2.9720380000000001e-07
    X00000963  X00000963  2
    X00000964  X00000964  2
    X00000965  X00000965  3.0070120000000001e-06
    X00000966  X00000966  2
    X00000967  X00000967  2
    X00000968  X00000968  2
    X00000969  X00000969  2
    X00000970  X00000970  2
    X00000971  X00000971  2
    X00000972  X00000972  2
    X00000973  X00000973  2
    X00000974  X00000974  2
    X00000975  X00000975  2
    X00000976  X00000976  2
    X00000977  X00000977  2
    X00000978  X00000978  2
    X00000979  X00000979  2
    X00000980  X00000980  2
    X00000981  X00000981  9.3150200000000008e-09
    X00000982  X00000982  6.6920959999999995e-08
    X00000983  X00000983  2
    X00000984  X00000984  2.2425919999999999e-08
    X00000985  X00000985  2
    X00000986  X00000986  2
    X00000987  X00000987  2
    X00000988  X00000988  2.0912039999999998e-08
    X00000989  X00000989  2
    X00000990  X00000990  2
    X00000991  X00000991  2
    X00000992  X00000992  2
    X00000993  X00000993  2
    X00000994  X00000994  2
    X00000995  X00000995  2
    X00000996  X00000996  2
    X00000997  X00000997  2
    X00000998  X00000998  2
    X00000999  X00000999  2
    X00001000  X00001000  2
    X00001001  X00001001  2
    X00001002  X00001002  2
    X00001003  X00001003  2
    X00001004  X00001004  2
    X00001005  X00001005  2
    X00001006  X00001006  2
    X00001007  X00001007  2
    X00001008  X00001008  2
    X00001009  X00001009  2
    X00001010  X00001010  2
    X00001011  X00001011  2
    X00001012  X00001012  2
    X00001013  X00001013  2
    X00001014  X00001014  2
    X00001015  X00001015  2
    X00001016  X00001016  2
    X00001017  X00001017  2
    X00001018  X00001018  2
    X00001019  X00001019  2
    X00001020  X00001020  2
    X00001021  X00001021  9.4601120000000005e-12
    X00001022  X00001022  3.3856520000000001e-11
    X00001023  X00001023  8.50872e-10
    X00001024  X00001024  1.097352e-08
    X00001025  X00001025  8.8047940000000003e-08
    X00001026  X00001026  1.5920269999999999e-11
    X00001027  X00001027  4.4086940000000001e-06
    X00001028  X00001028  1.3965699999999999e-06
    X00001029  X00001029  8.2787960000000004e-11
    X00001030  X00001030  2
    X00001031  X00001031  1.0840169999999999e-10
    X00001032  X00001032  2
    X00001033  X00001033  2
    X00001034  X00001034  5.2395800000000001e-06
    X00001035  X00001035  2
    X00001036  X00001036  1.115928e-10
    X00001037  X00001037  2
    X00001038  X00001038  2
    X00001039  X00001039  3.793476e-09
    X00001040  X00001040  2
    X00001041  X00001041  5.6205980000000001e-08
    X00001042  X00001042  2
    X00001043  X00001043  2
    X00001044  X00001044  2.2441339999999999e-06
    X00001045  X00001045  2
    X00001046  X00001046  2
    X00001047  X00001047  2
    X00001048  X00001048  2
    X00001049  X00001049  5.7649839999999999e-08
    X00001050  X00001050  2
    X00001051  X00001051  3.1476740000000002e-09
    X00001052  X00001052  2
    X00001053  X00001053  1.082632e-08
    X00001054  X00001054  2.033756e-06
    X00001055  X00001055  2
    X00001056  X00001056  5.7110719999999998e-08
    X00001057  X00001057  2
    X00001058  X00001058  2
    X00001059  X00001059  4.8233219999999997e-09
    X00001060  X00001060  2
    X00001061  X00001061  1.620444e-11
    X00001062  X00001062  1.6385520000000001e-10
    X00001063  X00001063  2.968398e-09
    X00001064  X00001064  3.1164779999999998e-07
    X00001065  X00001065  1.5171279999999999e-07
    X00001066  X00001066  1.858874e-11
    X00001067  X00001067  2
    X00001068  X00001068  2
    X00001069  X00001069  6.8219100000000001e-10
    X00001070  X00001070  2
    X00001071  X00001071  1.6251310000000001e-07
    X00001072  X00001072  2
    X00001073  X00001073  1.6854309999999999e-07
    X00001074  X00001074  4.541636e-06
    X00001075  X00001075  2
    X00001076  X00001076  2
    X00001077  X00001077  2
    X00001078  X00001078  2
    X00001079  X00001079  2
    X00001080  X00001080  2
    X00001081  X00001081  4.068844e-10
    X00001082  X00001082  2.3325359999999999e-09
    X00001083  X00001083  2.1040700000000002e-09
    X00001084  X00001084  2.477812e-08
    X00001085  X00001085  2
    X00001086  X00001086  4.4005080000000002e-08
    X00001087  X00001087  2
    X00001088  X00001088  1.3965699999999999e-06
    X00001089  X00001089  6.7117920000000001e-10
    X00001090  X00001090  2
    X00001091  X00001091  4.3504460000000001e-11
    X00001092  X00001092  4.350616e-11
    X00001093  X00001093  4.8439280000000003e-06
    X00001094  X00001094  2
    X00001095  X00001095  2
    X00001096  X00001096  2
    X00001097  X00001097  2
    X00001098  X00001098  2
    X00001099  X00001099  1.401483e-06
    X00001100  X00001100  2
    X00001101  X00001101  1.625329e-10
    X00001102  X00001102  2
    X00001103  X00001103  2
    X00001104  X00001104  3.7676339999999999e-07
    X00001105  X00001105  2
    X00001106  X00001106  2
    X00001107  X00001107  2
    X00001108  X00001108  2
    X00001109  X00001109  1.6260290000000001e-10
    X00001110  X00001110  2
    X00001111  X00001111  1.7042739999999999e-08
    X00001112  X00001112  5.3956060000000003e-08
    X00001113  X00001113  1.135789e-07
    X00001114  X00001114  1.1775369999999999e-07
    X00001115  X00001115  2
    X00001116  X00001116  2
    X00001117  X00001117  2
    X00001118  X00001118  2
    X00001119  X00001119  4.3772200000000001e-08
    X00001120  X00001120  2
    X00001121  X00001121  8.621618e-09
    X00001122  X00001122  5.1202359999999998e-06
    X00001123  X00001123  2
    X00001124  X00001124  8.6695299999999999e-08
    X00001125  X00001125  2
    X00001126  X00001126  6.500872e-08
    X00001127  X00001127  2
    X00001128  X00001128  2
    X00001129  X00001129  1.125176e-08
    X00001130  X00001130  2
    X00001131  X00001131  3.3741199999999999e-09
    X00001132  X00001132  2
    X00001133  X00001133  3.9092660000000001e-09
    X00001134  X00001134  4.4150020000000001e-08
    X00001135  X00001135  2.0981700000000001e-07
    X00001136  X00001136  2
    X00001137  X00001137  4.4086940000000001e-06
    X00001138  X00001138  2
    X00001139  X00001139  7.7349979999999995e-08
    X00001140  X00001140  2
    X00001141  X00001141  6.0334000000000003e-08
    X00001142  X00001142  1.3242139999999999e-06
    X00001143  X00001143  2
    X00001144  X00001144  2
    X00001145  X00001145  2
    X00001146  X00001146  2
    X00001147  X00001147  2
    X00001148  X00001148  2
    X00001149  X00001149  6.3214119999999998e-08
    X00001150  X00001150  2
    X00001151  X00001151  5.7066060000000002e-08
    X00001152  X00001152  2
    X00001153  X00001153  2
    X00001154  X00001154  2
    X00001155  X00001155  2
    X00001156  X00001156  2
    X00001157  X00001157  2
    X00001158  X00001158  2
    X00001159  X00001159  5.7066060000000002e-08
    X00001160  X00001160  2
    X00001161  X00001161  1.1335809999999999e-06
    X00001162  X00001162  2
    X00001163  X00001163  2
    X00001164  X00001164  1.1335809999999999e-06
    X00001165  X00001165  2
    X00001166  X00001166  2
    X00001167  X00001167  2
    X00001168  X00001168  2
    X00001169  X00001169  2
    X00001170  X00001170  2
    X00001171  X00001171  4.298626e-10
    X00001172  X00001172  2
    X00001173  X00001173  2
    X00001174  X00001174  2
    X00001175  X00001175  2
    X00001176  X00001176  2
    X00001177  X00001177  2
    X00001178  X00001178  2
    X00001179  X00001179  4.298626e-10
    X00001180  X00001180  2
    X00001181  X00001181  2
    X00001182  X00001182  2
    X00001183  X00001183  2
    X00001184  X00001184  2
    X00001185  X00001185  2
    X00001186  X00001186  2
    X00001187  X00001187  2
    X00001188  X00001188  2
    X00001189  X00001189  2
    X00001190  X00001190  2
    X00001191  X00001191  1.345451e-11
    X00001192  X00001192  1.22555e-08
    X00001193  X00001193  8.7451959999999997e-10
    X00001194  X00001194  1.293879e-08
    X00001195  X00001195  2.01478e-07
    X00001196  X00001196  1.592864e-11
    X00001197  X00001197  4.4086940000000001e-06
    X00001198  X00001198  1.3965699999999999e-06
    X00001199  X00001199  9.7692499999999996e-11
    X00001200  X00001200  2
    X00001201  X00001201  1.089301e-10
    X00001202  X00001202  2
    X00001203  X00001203  2
    X00001204  X00001204  2
    X00001205  X00001205  2
    X00001206  X00001206  1.115928e-10
    X00001207  X00001207  2
    X00001208  X00001208  2
    X00001209  X00001209  4.5648439999999998e-09
    X00001210  X00001210  2
    X00001211  X00001211  5.6205980000000001e-08
    X00001212  X00001212  2
    X00001213  X00001213  2
    X00001214  X00001214  2.2441339999999999e-06
    X00001215  X00001215  2
    X00001216  X00001216  2
    X00001217  X00001217  2
    X00001218  X00001218  2
    X00001219  X00001219  5.7649839999999999e-08
    X00001220  X00001220  2
    X00001221  X00001221  3.4320220000000001e-09
    X00001222  X00001222  2
    X00001223  X00001223  1.082632e-08
    X00001224  X00001224  2
    X00001225  X00001225  2
    X00001226  X00001226  2
    X00001227  X00001227  2
    X00001228  X00001228  2
    X00001229  X00001229  5.0249740000000003e-09
    X00001230  X00001230  2
    X00001231  X00001231  1.8165469999999999e-11
    X00001232  X00001232  6.9169199999999997e-07
    X00001233  X00001233  2.968398e-09
    X00001234  X00001234  6.8984780000000001e-07
    X00001235  X00001235  5.0693620000000003e-06
    X00001236  X00001236  1.858874e-11
    X00001237  X00001237  2
    X00001238  X00001238  2
    X00001239  X00001239  1.0949300000000001e-09
    X00001240  X00001240  2
    X00001241  X00001241  1.6854309999999999e-07
    X00001242  X00001242  2
    X00001243  X00001243  1.6854309999999999e-07
    X00001244  X00001244  2
    X00001245  X00001245  2
    X00001246  X00001246  2
    X00001247  X00001247  2
    X00001248  X00001248  2
    X00001249  X00001249  2
    X00001250  X00001250  2
    X00001251  X00001251  6.6298260000000002e-10
    X00001252  X00001252  1.262626e-08
    X00001253  X00001253  2.204766e-09
    X00001254  X00001254  2.500268e-08
    X00001255  X00001255  2
    X00001256  X00001256  4.4005080000000002e-08
    X00001257  X00001257  2
    X00001258  X00001258  1.3965699999999999e-06
    X00001259  X00001259  1.0963229999999999e-09
    X00001260  X00001260  2
    X00001261  X00001261  2
    X00001262  X00001262  2
    X00001263  X00001263  2
    X00001264  X00001264  2
    X00001265  X00001265  2
    X00001266  X00001266  2
    X00001267  X00001267  2
    X00001268  X00001268  2
    X00001269  X00001269  2
    X00001270  X00001270  2
    X00001271  X00001271  1.626307e-10
    X00001272  X00001272  2
    X00001273  X00001273  2
    X00001274  X00001274  2
    X00001275  X00001275  2
    X00001276  X00001276  2
    X00001277  X00001277  2
    X00001278  X00001278  2
    X00001279  X00001279  1.626307e-10
    X00001280  X00001280  2
    X00001281  X00001281  1.047044e-07
    X00001282  X00001282  2
    X00001283  X00001283  2
    X00001284  X00001284  1.207678e-07
    X00001285  X00001285  2
    X00001286  X00001286  2
    X00001287  X00001287  2
    X00001288  X00001288  2
    X00001289  X00001289  7.8718160000000002e-07
    X00001290  X00001290  2
    X00001291  X00001291  2.9528439999999999e-08
    X00001292  X00001292  5.1202359999999998e-06
    X00001293  X00001293  2
    X00001294  X00001294  1.5485990000000001e-07
    X00001295  X00001295  2
    X00001296  X00001296  2
    X00001297  X00001297  2
    X00001298  X00001298  2
    X00001299  X00001299  3.6747280000000001e-08
    X00001300  X00001300  2
    X00001301  X00001301  3.4114319999999999e-09
    X00001302  X00001302  2
    X00001303  X00001303  3.9255719999999999e-09
    X00001304  X00001304  4.8850060000000003e-08
    X00001305  X00001305  2.0981700000000001e-07
    X00001306  X00001306  2
    X00001307  X00001307  4.4086940000000001e-06
    X00001308  X00001308  2
    X00001309  X00001309  7.7349979999999995e-08
    X00001310  X00001310  2
    X00001311  X00001311  6.0334000000000003e-08
    X00001312  X00001312  1.3242139999999999e-06
    X00001313  X00001313  2
    X00001314  X00001314  2
    X00001315  X00001315  2
    X00001316  X00001316  2
    X00001317  X00001317  2
    X00001318  X00001318  2
    X00001319  X00001319  6.3214119999999998e-08
    X00001320  X00001320  2
    X00001321  X00001321  5.7066060000000002e-08
    X00001322  X00001322  2
    X00001323  X00001323  2
    X00001324  X00001324  2
    X00001325  X00001325  2
    X00001326  X00001326  2
    X00001327  X00001327  2
    X00001328  X00001328  2
    X00001329  X00001329  5.7066060000000002e-08
    X00001330  X00001330  2
    X00001331  X00001331  5.3322819999999997e-06
    X00001332  X00001332  2
    X00001333  X00001333  2
    X00001334  X00001334  5.3322819999999997e-06
    X00001335  X00001335  2
    X00001336  X00001336  2
    X00001337  X00001337  2
    X00001338  X00001338  2
    X00001339  X00001339  2
    X00001340  X00001340  2
    X00001341  X00001341  5.7087720000000004e-10
    X00001342  X00001342  2
    X00001343  X00001343  2
    X00001344  X00001344  2
    X00001345  X00001345  2
    X00001346  X00001346  2
    X00001347  X00001347  2
    X00001348  X00001348  2
    X00001349  X00001349  5.7087720000000004e-10
    X00001350  X00001350  2
    X00001351  X00001351  2
    X00001352  X00001352  2
    X00001353  X00001353  2
    X00001354  X00001354  2
    X00001355  X00001355  2
    X00001356  X00001356  2
    X00001357  X00001357  2
    X00001358  X00001358  2
    X00001359  X00001359  2
    X00001360  X00001360  2
    X00001361  X00001361  1.2546499999999999e-10
    X00001362  X00001362  2
    X00001363  X00001363  2
    X00001364  X00001364  8.5020280000000002e-07
    X00001365  X00001365  2
    X00001366  X00001366  2
    X00001367  X00001367  2
    X00001368  X00001368  2
    X00001369  X00001369  1.2548389999999999e-10
    X00001370  X00001370  2
    X00001371  X00001371  2
    X00001372  X00001372  2
    X00001373  X00001373  2
    X00001374  X00001374  2
    X00001375  X00001375  2
    X00001376  X00001376  2
    X00001377  X00001377  2
    X00001378  X00001378  2
    X00001379  X00001379  2
    X00001380  X00001380  2
    X00001381  X00001381  2
    X00001382  X00001382  2
    X00001383  X00001383  2
    X00001384  X00001384  2
    X00001385  X00001385  2
    X00001386  X00001386  2
    X00001387  X00001387  2
    X00001388  X00001388  2
    X00001389  X00001389  2
    X00001390  X00001390  2
    X00001391  X00001391  1.455064e-08
    X00001392  X00001392  2
    X00001393  X00001393  2
    X00001394  X00001394  2
    X00001395  X00001395  2
    X00001396  X00001396  2
    X00001397  X00001397  2
    X00001398  X00001398  2
    X00001399  X00001399  1.455064e-08
    X00001400  X00001400  2
    X00001401  X00001401  8.5020280000000002e-07
    X00001402  X00001402  2
    X00001403  X00001403  2
    X00001404  X00001404  8.5020280000000002e-07
    X00001405  X00001405  2
    X00001406  X00001406  2
    X00001407  X00001407  2
    X00001408  X00001408  2
    X00001409  X00001409  2
    X00001410  X00001410  2
    X00001411  X00001411  2
    X00001412  X00001412  2
    X00001413  X00001413  2
    X00001414  X00001414  2
    X00001415  X00001415  2
    X00001416  X00001416  2
    X00001417  X00001417  2
    X00001418  X00001418  2
    X00001419  X00001419  2
    X00001420  X00001420  2
    X00001421  X00001421  2
    X00001422  X00001422  2
    X00001423  X00001423  2
    X00001424  X00001424  2
    X00001425  X00001425  2
    X00001426  X00001426  2
    X00001427  X00001427  2
    X00001428  X00001428  2
    X00001429  X00001429  2
    X00001430  X00001430  2
    X00001431  X00001431  2
    X00001432  X00001432  2
    X00001433  X00001433  2
    X00001434  X00001434  2
    X00001435  X00001435  2
    X00001436  X00001436  2
    X00001437  X00001437  2
    X00001438  X00001438  2
    X00001439  X00001439  2
    X00001440  X00001440  2
    X00001441  X00001441  1.626307e-10
    X00001442  X00001442  2
    X00001443  X00001443  2
    X00001444  X00001444  2
    X00001445  X00001445  2
    X00001446  X00001446  2
    X00001447  X00001447  2
    X00001448  X00001448  2
    X00001449  X00001449  1.626307e-10
    X00001450  X00001450  2
    X00001451  X00001451  2
    X00001452  X00001452  2
    X00001453  X00001453  2
    X00001454  X00001454  2
    X00001455  X00001455  2
    X00001456  X00001456  2
    X00001457  X00001457  2
    X00001458  X00001458  2
    X00001459  X00001459  2
    X00001460  X00001460  2
    X00001461  X00001461  2
    X00001462  X00001462  2
    X00001463  X00001463  2
    X00001464  X00001464  2
    X00001465  X00001465  2
    X00001466  X00001466  2
    X00001467  X00001467  2
    X00001468  X00001468  2
    X00001469  X00001469  2
    X00001470  X00001470  2
    X00001471  X00001471  2
    X00001472  X00001472  2
    X00001473  X00001473  2
    X00001474  X00001474  2
    X00001475  X00001475  2
    X00001476  X00001476  2
    X00001477  X00001477  2
    X00001478  X00001478  2
    X00001479  X00001479  2
    X00001480  X00001480  2
    X00001481  X00001481  2
    X00001482  X00001482  2
    X00001483  X00001483  2
    X00001484  X00001484  2
    X00001485  X00001485  2
    X00001486  X00001486  2
    X00001487  X00001487  2
    X00001488  X00001488  2
    X00001489  X00001489  2
    X00001490  X00001490  2
    X00001491  X00001491  2
    X00001492  X00001492  2
    X00001493  X00001493  2
    X00001494  X00001494  2
    X00001495  X00001495  2
    X00001496  X00001496  2
    X00001497  X00001497  2
    X00001498  X00001498  2
    X00001499  X00001499  2
    X00001500  X00001500  2
    X00001501  X00001501  2
    X00001502  X00001502  2
    X00001503  X00001503  2
    X00001504  X00001504  2
    X00001505  X00001505  2
    X00001506  X00001506  2
    X00001507  X00001507  2
    X00001508  X00001508  2
    X00001509  X00001509  2
    X00001510  X00001510  2
    X00001511  X00001511  5.7093100000000002e-10
    X00001512  X00001512  2
    X00001513  X00001513  2
    X00001514  X00001514  2
    X00001515  X00001515  2
    X00001516  X00001516  2
    X00001517  X00001517  2
    X00001518  X00001518  2
    X00001519  X00001519  5.7093100000000002e-10
    X00001520  X00001520  2
    X00001521  X00001521  2
    X00001522  X00001522  2
    X00001523  X00001523  2
    X00001524  X00001524  2
    X00001525  X00001525  2
    X00001526  X00001526  2
    X00001527  X00001527  2
    X00001528  X00001528  2
    X00001529  X00001529  2
    X00001530  X00001530  2
    X00001531  X00001531  1.555198e-11
    X00001532  X00001532  6.9169199999999997e-07
    X00001533  X00001533  2.968398e-09
    X00001534  X00001534  1.2322250000000001e-06
    X00001535  X00001535  2.4500640000000001e-07
    X00001536  X00001536  1.5934350000000001e-11
    X00001537  X00001537  2
    X00001538  X00001538  2
    X00001539  X00001539  8.332604e-10
    X00001540  X00001540  2
    X00001541  X00001541  1.089301e-10
    X00001542  X00001542  2
    X00001543  X00001543  2
    X00001544  X00001544  2
    X00001545  X00001545  2
    X00001546  X00001546  1.115928e-10
    X00001547  X00001547  2
    X00001548  X00001548  2
    X00001549  X00001549  4.5648439999999998e-09
    X00001550  X00001550  2
    X00001551  X00001551  2
    X00001552  X00001552  2
    X00001553  X00001553  2
    X00001554  X00001554  2
    X00001555  X00001555  2
    X00001556  X00001556  2
    X00001557  X00001557  2
    X00001558  X00001558  2
    X00001559  X00001559  2
    X00001560  X00001560  2
    X00001561  X00001561  1.476287e-08
    X00001562  X00001562  2
    X00001563  X00001563  2
    X00001564  X00001564  2
    X00001565  X00001565  2
    X00001566  X00001566  2
    X00001567  X00001567  2
    X00001568  X00001568  2
    X00001569  X00001569  1.476287e-08
    X00001570  X00001570  2
    X00001571  X00001571  1.8165799999999999e-11
    X00001572  X00001572  6.9169199999999997e-07
    X00001573  X00001573  2.968398e-09
    X00001574  X00001574  3.6576119999999998e-06
    X00001575  X00001575  5.0693620000000003e-06
    X00001576  X00001576  1.858874e-11
    X00001577  X00001577  2
    X00001578  X00001578  2
    X00001579  X00001579  1.0949300000000001e-09
    X00001580  X00001580  2
    X00001581  X00001581  2
    X00001582  X00001582  2
    X00001583  X00001583  2
    X00001584  X00001584  2
    X00001585  X00001585  2
    X00001586  X00001586  2
    X00001587  X00001587  2
    X00001588  X00001588  2
    X00001589  X00001589  2
    X00001590  X00001590  2
    X00001591  X00001591  2
    X00001592  X00001592  2
    X00001593  X00001593  2
    X00001594  X00001594  2
    X00001595  X00001595  2
    X00001596  X00001596  2
    X00001597  X00001597  2
    X00001598  X00001598  2
    X00001599  X00001599  2
    X00001600  X00001600  2
    X00001601  X00001601  2
    X00001602  X00001602  2
    X00001603  X00001603  2
    X00001604  X00001604  2
    X00001605  X00001605  2
    X00001606  X00001606  2
    X00001607  X00001607  2
    X00001608  X00001608  2
    X00001609  X00001609  2
    X00001610  X00001610  2
    X00001611  X00001611  2
    X00001612  X00001612  2
    X00001613  X00001613  2
    X00001614  X00001614  2
    X00001615  X00001615  2
    X00001616  X00001616  2
    X00001617  X00001617  2
    X00001618  X00001618  2
    X00001619  X00001619  2
    X00001620  X00001620  2
    X00001621  X00001621  2
    X00001622  X00001622  2
    X00001623  X00001623  2
    X00001624  X00001624  2
    X00001625  X00001625  2
    X00001626  X00001626  2
    X00001627  X00001627  2
    X00001628  X00001628  2
    X00001629  X00001629  2
    X00001630  X00001630  2
    X00001631  X00001631  2.8522660000000001e-06
    X00001632  X00001632  2
    X00001633  X00001633  2
    X00001634  X00001634  2.8522660000000001e-06
    X00001635  X00001635  2
    X00001636  X00001636  2
    X00001637  X00001637  2
    X00001638  X00001638  2
    X00001639  X00001639  2
    X00001640  X00001640  2
    X00001641  X00001641  2.5744919999999998e-07
    X00001642  X00001642  2
    X00001643  X00001643  2
    X00001644  X00001644  2
    X00001645  X00001645  2.5744919999999998e-07
    X00001646  X00001646  2
    X00001647  X00001647  2
    X00001648  X00001648  2
    X00001649  X00001649  2
    X00001650  X00001650  2
    X00001651  X00001651  2
    X00001652  X00001652  2
    X00001653  X00001653  2
    X00001654  X00001654  2
    X00001655  X00001655  2
    X00001656  X00001656  2
    X00001657  X00001657  2
    X00001658  X00001658  2
    X00001659  X00001659  2
    X00001660  X00001660  2
    X00001661  X00001661  2
    X00001662  X00001662  2
    X00001663  X00001663  2
    X00001664  X00001664  2
    X00001665  X00001665  2
    X00001666  X00001666  2
    X00001667  X00001667  2
    X00001668  X00001668  2
    X00001669  X00001669  2
    X00001670  X00001670  2
    X00001671  X00001671  5.3322819999999997e-06
    X00001672  X00001672  2
    X00001673  X00001673  2
    X00001674  X00001674  5.3322819999999997e-06
    X00001675  X00001675  2
    X00001676  X00001676  2
    X00001677  X00001677  2
    X00001678  X00001678  2
    X00001679  X00001679  2
    X00001680  X00001680  2
    X00001681  X00001681  2
    X00001682  X00001682  2
    X00001683  X00001683  2
    X00001684  X00001684  2
    X00001685  X00001685  2
    X00001686  X00001686  2
    X00001687  X00001687  2
    X00001688  X00001688  2
    X00001689  X00001689  2
    X00001690  X00001690  2
    X00001691  X00001691  2
    X00001692  X00001692  2
    X00001693  X00001693  2
    X00001694  X00001694  2
    X00001695  X00001695  2
    X00001696  X00001696  2
    X00001697  X00001697  2
    X00001698  X00001698  2
    X00001699  X00001699  2
    X00001700  X00001700  2
    X00001701  X00001701  1.359804e-06
    X00001702  X00001702  2
    X00001703  X00001703  2
    X00001704  X00001704  1.8582700000000001e-06
    X00001705  X00001705  5.0693620000000003e-06
    X00001706  X00001706  2
    X00001707  X00001707  2
    X00001708  X00001708  2
    X00001709  X00001709  2
    X00001710  X00001710  2
    X00001711  X00001711  2
    X00001712  X00001712  2
    X00001713  X00001713  2
    X00001714  X00001714  2
    X00001715  X00001715  2
    X00001716  X00001716  2
    X00001717  X00001717  2
    X00001718  X00001718  2
    X00001719  X00001719  2
    X00001720  X00001720  2
    X00001721  X00001721  2
    X00001722  X00001722  2
    X00001723  X00001723  2
    X00001724  X00001724  2
    X00001725  X00001725  2
    X00001726  X00001726  2
    X00001727  X00001727  2
    X00001728  X00001728  2
    X00001729  X00001729  2
    X00001730  X00001730  2
    X00001731  X00001731  2
    X00001732  X00001732  2
    X00001733  X00001733  2
    X00001734  X00001734  2
    X00001735  X00001735  2
    X00001736  X00001736  2
    X00001737  X00001737  2
    X00001738  X00001738  2
    X00001739  X00001739  2
    X00001740  X00001740  2
    X00001741  X00001741  5.0693620000000003e-06
    X00001742  X00001742  2
    X00001743  X00001743  2
    X00001744  X00001744  2
    X00001745  X00001745  5.0693620000000003e-06
    X00001746  X00001746  2
    X00001747  X00001747  2
    X00001748  X00001748  2
    X00001749  X00001749  2
    X00001750  X00001750  2
    X00001751  X00001751  2
    X00001752  X00001752  2
    X00001753  X00001753  2
    X00001754  X00001754  2
    X00001755  X00001755  2
    X00001756  X00001756  2
    X00001757  X00001757  2
    X00001758  X00001758  2
    X00001759  X00001759  2
    X00001760  X00001760  2
    X00001761  X00001761  2
    X00001762  X00001762  2
    X00001763  X00001763  2
    X00001764  X00001764  2
    X00001765  X00001765  2
    X00001766  X00001766  2
    X00001767  X00001767  2
    X00001768  X00001768  2
    X00001769  X00001769  2
    X00001770  X00001770  2
    X00001771  X00001771  2
    X00001772  X00001772  2
    X00001773  X00001773  2
    X00001774  X00001774  2
    X00001775  X00001775  2
    X00001776  X00001776  2
    X00001777  X00001777  2
    X00001778  X00001778  2
    X00001779  X00001779  2
    X00001780  X00001780  2
    X00001781  X00001781  2
    X00001782  X00001782  2
    X00001783  X00001783  2
    X00001784  X00001784  2
    X00001785  X00001785  2
    X00001786  X00001786  2
    X00001787  X00001787  2
    X00001788  X00001788  2
    X00001789  X00001789  2
    X00001790  X00001790  2
    X00001791  X00001791  2
    X00001792  X00001792  2
    X00001793  X00001793  2
    X00001794  X00001794  2
    X00001795  X00001795  2
    X00001796  X00001796  2
    X00001797  X00001797  2
    X00001798  X00001798  2
    X00001799  X00001799  2
    X00001800  X00001800  2
    X00001801  X00001801  2.8522660000000001e-06
    X00001802  X00001802  2
    X00001803  X00001803  2
    X00001804  X00001804  2.8522660000000001e-06
    X00001805  X00001805  2
    X00001806  X00001806  2
    X00001807  X00001807  2
    X00001808  X00001808  2
    X00001809  X00001809  2
    X00001810  X00001810  2
    X00001811  X00001811  2
    X00001812  X00001812  2
    X00001813  X00001813  2
    X00001814  X00001814  2
    X00001815  X00001815  2
    X00001816  X00001816  2
    X00001817  X00001817  2
    X00001818  X00001818  2
    X00001819  X00001819  2
    X00001820  X00001820  2
    X00001821  X00001821  2
    X00001822  X00001822  2
    X00001823  X00001823  2
    X00001824  X00001824  2
    X00001825  X00001825  2
    X00001826  X00001826  2
    X00001827  X00001827  2
    X00001828  X00001828  2
    X00001829  X00001829  2
    X00001830  X00001830  2
    X00001831  X00001831  2
    X00001832  X00001832  2
    X00001833  X00001833  2
    X00001834  X00001834  2
    X00001835  X00001835  2
    X00001836  X00001836  2
    X00001837  X00001837  2
    X00001838  X00001838  2
    X00001839  X00001839  2
    X00001840  X00001840  2
    X00001841  X00001841  5.3322819999999997e-06
    X00001842  X00001842  2
    X00001843  X00001843  2
    X00001844  X00001844  5.3322819999999997e-06
    X00001845  X00001845  2
    X00001846  X00001846  2
    X00001847  X00001847  2
    X00001848  X00001848  2
    X00001849  X00001849  2
    X00001850  X00001850  2
    X00001851  X00001851  2
    X00001852  X00001852  2
    X00001853  X00001853  2
    X00001854  X00001854  2
    X00001855  X00001855  2
    X00001856  X00001856  2
    X00001857  X00001857  2
    X00001858  X00001858  2
    X00001859  X00001859  2
    X00001860  X00001860  2
    X00001861  X00001861  2
    X00001862  X00001862  2
    X00001863  X00001863  2
    X00001864  X00001864  2
    X00001865  X00001865  2
    X00001866  X00001866  2
    X00001867  X00001867  2
    X00001868  X00001868  2
    X00001869  X00001869  2
    X00001870  X00001870  2
    X00001871  X00001871  1.5552100000000001e-11
    X00001872  X00001872  6.9169199999999997e-07
    X00001873  X00001873  2.968398e-09
    X00001874  X00001874  3.6576119999999998e-06
    X00001875  X00001875  2.5744919999999998e-07
    X00001876  X00001876  1.5934350000000001e-11
    X00001877  X00001877  2
    X00001878  X00001878  2
    X00001879  X00001879  8.332604e-10
    X00001880  X00001880  2
    X00001881  X00001881  1.089301e-10
    X00001882  X00001882  2
    X00001883  X00001883  2
    X00001884  X00001884  2
    X00001885  X00001885  2
    X00001886  X00001886  1.115928e-10
    X00001887  X00001887  2
    X00001888  X00001888  2
    X00001889  X00001889  4.5648439999999998e-09
    X00001890  X00001890  2
    X00001891  X00001891  2
    X00001892  X00001892  2
    X00001893  X00001893  2
    X00001894  X00001894  2
    X00001895  X00001895  2
    X00001896  X00001896  2
    X00001897  X00001897  2
    X00001898  X00001898  2
    X00001899  X00001899  2
    X00001900  X00001900  2
    X00001901  X00001901  1.476287e-08
    X00001902  X00001902  2
    X00001903  X00001903  2
    X00001904  X00001904  2
    X00001905  X00001905  2
    X00001906  X00001906  2
    X00001907  X00001907  2
    X00001908  X00001908  2
    X00001909  X00001909  1.476287e-08
    X00001910  X00001910  2
    X00001911  X00001911  1.8165960000000001e-11
    X00001912  X00001912  6.9169199999999997e-07
    X00001913  X00001913  2.968398e-09
    X00001914  X00001914  3.6576119999999998e-06
    X00001915  X00001915  2
    X00001916  X00001916  1.858874e-11
    X00001917  X00001917  2
    X00001918  X00001918  2
    X00001919  X00001919  1.0949300000000001e-09
    X00001920  X00001920  2
    X00001921  X00001921  2
    X00001922  X00001922  2
    X00001923  X00001923  2
    X00001924  X00001924  2
    X00001925  X00001925  2
    X00001926  X00001926  2
    X00001927  X00001927  2
    X00001928  X00001928  2
    X00001929  X00001929  2
    X00001930  X00001930  2
    X00001931  X00001931  2
    X00001932  X00001932  2
    X00001933  X00001933  2
    X00001934  X00001934  2
    X00001935  X00001935  2
    X00001936  X00001936  2
    X00001937  X00001937  2
    X00001938  X00001938  2
    X00001939  X00001939  2
    X00001940  X00001940  2
    X00001941  X00001941  2
    X00001942  X00001942  2
    X00001943  X00001943  2
    X00001944  X00001944  2
    X00001945  X00001945  2
    X00001946  X00001946  2
    X00001947  X00001947  2
    X00001948  X00001948  2
    X00001949  X00001949  2
    X00001950  X00001950  2
    X00001951  X00001951  2
    X00001952  X00001952  2
    X00001953  X00001953  2
    X00001954  X00001954  2
    X00001955  X00001955  2
    X00001956  X00001956  2
    X00001957  X00001957  2
    X00001958  X00001958  2
    X00001959  X00001959  2
    X00001960  X00001960  2
    X00001961  X00001961  2
    X00001962  X00001962  2
    X00001963  X00001963  2
    X00001964  X00001964  2
    X00001965  X00001965  2
    X00001966  X00001966  2
    X00001967  X00001967  2
    X00001968  X00001968  2
    X00001969  X00001969  2
    X00001970  X00001970  2
    X00001971  X00001971  2
    X00001972  X00001972  2
    X00001973  X00001973  2
    X00001974  X00001974  2
    X00001975  X00001975  2
    X00001976  X00001976  2
    X00001977  X00001977  2
    X00001978  X00001978  2
    X00001979  X00001979  2
    X00001980  X00001980  2
    X00001981  X00001981  2.5744919999999998e-07
    X00001982  X00001982  2
    X00001983  X00001983  2
    X00001984  X00001984  2
    X00001985  X00001985  2.5744919999999998e-07
    X00001986  X00001986  2
    X00001987  X00001987  2
    X00001988  X00001988  2
    X00001989  X00001989  2
    X00001990  X00001990  2
    X00001991  X00001991  2
    X00001992  X00001992  2
    X00001993  X00001993  2
    X00001994  X00001994  2
    X00001995  X00001995  2
    X00001996  X00001996  2
    X00001997  X00001997  2
    X00001998  X00001998  2
    X00001999  X00001999  2
    X00002000  X00002000  2
    X00002001  X00002001  2
    X00002002  X00002002  2
    X00002003  X00002003  2
    X00002004  X00002004  2
    X00002005  X00002005  2
    X00002006  X00002006  2
    X00002007  X00002007  2
    X00002008  X00002008  2
    X00002009  X00002009  2
    X00002010  X00002010  2
    X00002011  X00002011  2
    X00002012  X00002012  2
    X00002013  X00002013  2
    X00002014  X00002014  2
    X00002015  X00002015  2
    X00002016  X00002016  2
    X00002017  X00002017  2
    X00002018  X00002018  2
    X00002019  X00002019  2
    X00002020  X00002020  2
    X00002021  X00002021  2
    X00002022  X00002022  2
    X00002023  X00002023  2
    X00002024  X00002024  2
    X00002025  X00002025  2
    X00002026  X00002026  2
    X00002027  X00002027  2
    X00002028  X00002028  2
    X00002029  X00002029  2
    X00002030  X00002030  2
    X00002031  X00002031  2
    X00002032  X00002032  2
    X00002033  X00002033  2
    X00002034  X00002034  2
    X00002035  X00002035  2
    X00002036  X00002036  2
    X00002037  X00002037  2
    X00002038  X00002038  2
    X00002039  X00002039  2
    X00002040  X00002040  2
    X00002041  X00002041  4.8696160000000004e-10
    X00002042  X00002042  1.2476530000000001e-08
    X00002043  X00002043  1.2397639999999999e-09
    X00002044  X00002044  1.32803e-08
    X00002045  X00002045  1.13405e-06
    X00002046  X00002046  4.4005080000000002e-08
    X00002047  X00002047  4.4086940000000001e-06
    X00002048  X00002048  1.3965699999999999e-06
    X00002049  X00002049  9.3725539999999991e-10
    X00002050  X00002050  2
    X00002051  X00002051  2
    X00002052  X00002052  2
    X00002053  X00002053  2
    X00002054  X00002054  2
    X00002055  X00002055  2
    X00002056  X00002056  2
    X00002057  X00002057  2
    X00002058  X00002058  2
    X00002059  X00002059  2
    X00002060  X00002060  2
    X00002061  X00002061  5.6205980000000001e-08
    X00002062  X00002062  2
    X00002063  X00002063  2
    X00002064  X00002064  2.2441339999999999e-06
    X00002065  X00002065  2
    X00002066  X00002066  2
    X00002067  X00002067  2
    X00002068  X00002068  2
    X00002069  X00002069  5.7649839999999999e-08
    X00002070  X00002070  2
    X00002071  X00002071  6.4553399999999998e-09
    X00002072  X00002072  2
    X00002073  X00002073  1.082632e-08
    X00002074  X00002074  2
    X00002075  X00002075  2
    X00002076  X00002076  2
    X00002077  X00002077  2
    X00002078  X00002078  2
    X00002079  X00002079  1.5988999999999998e-08
    X00002080  X00002080  2
    X00002081  X00002081  2
    X00002082  X00002082  2
    X00002083  X00002083  2
    X00002084  X00002084  2
    X00002085  X00002085  2
    X00002086  X00002086  2
    X00002087  X00002087  2
    X00002088  X00002088  2
    X00002089  X00002089  2
    X00002090  X00002090  2
    X00002091  X00002091  1.6854309999999999e-07
    X00002092  X00002092  2
    X00002093  X00002093  1.6854309999999999e-07
    X00002094  X00002094  2
    X00002095  X00002095  2
    X00002096  X00002096  2
    X00002097  X00002097  2
    X00002098  X00002098  2
    X00002099  X00002099  2
    X00002100  X00002100  2
    X00002101  X00002101  6.6298260000000002e-10
    X00002102  X00002102  1.262626e-08
    X00002103  X00002103  2.204766e-09
    X00002104  X00002104  2.500268e-08
    X00002105  X00002105  2
    X00002106  X00002106  4.4005080000000002e-08
    X00002107  X00002107  2
    X00002108  X00002108  1.3965699999999999e-06
    X00002109  X00002109  1.0963229999999999e-09
    X00002110  X00002110  2
    X00002111  X00002111  2
    X00002112  X00002112  2
    X00002113  X00002113  2
    X00002114  X00002114  2
    X00002115  X00002115  2
    X00002116  X00002116  2
    X00002117  X00002117  2
    X00002118  X00002118  2
    X00002119  X00002119  2
    X00002120  X00002120  2
    X00002121  X00002121  2
    X00002122  X00002122  2
    X00002123  X00002123  2
    X00002124  X00002124  2
    X00002125  X00002125  2
    X00002126  X00002126  2
    X00002127  X00002127  2
    X00002128  X00002128  2
    X00002129  X00002129  2
    X00002130  X00002130  2
    X00002131  X00002131  1.047044e-07
    X00002132  X00002132  2
    X00002133  X00002133  2
    X00002134  X00002134  1.207678e-07
    X00002135  X00002135  2
    X00002136  X00002136  2
    X00002137  X00002137  2
    X00002138  X00002138  2
    X00002139  X00002139  7.8718160000000002e-07
    X00002140  X00002140  2
    X00002141  X00002141  2.983734e-08
    X00002142  X00002142  5.1202359999999998e-06
    X00002143  X00002143  2
    X00002144  X00002144  1.6375050000000001e-07
    X00002145  X00002145  2
    X00002146  X00002146  2
    X00002147  X00002147  2
    X00002148  X00002148  2
    X00002149  X00002149  3.6747280000000001e-08
    X00002150  X00002150  2
    X00002151  X00002151  3.4572399999999999e-09
    X00002152  X00002152  2
    X00002153  X00002153  3.9255719999999999e-09
    X00002154  X00002154  4.8850060000000003e-08
    X00002155  X00002155  1.13405e-06
    X00002156  X00002156  2
    X00002157  X00002157  4.4086940000000001e-06
    X00002158  X00002158  2
    X00002159  X00002159  7.7349979999999995e-08
    X00002160  X00002160  2
    X00002161  X00002161  6.0334000000000003e-08
    X00002162  X00002162  1.3242139999999999e-06
    X00002163  X00002163  2
    X00002164  X00002164  2
    X00002165  X00002165  2
    X00002166  X00002166  2
    X00002167  X00002167  2
    X00002168  X00002168  2
    X00002169  X00002169  6.3214119999999998e-08
    X00002170  X00002170  2
    X00002171  X00002171  5.7066060000000002e-08
    X00002172  X00002172  2
    X00002173  X00002173  2
    X00002174  X00002174  2
    X00002175  X00002175  2
    X00002176  X00002176  2
    X00002177  X00002177  2
    X00002178  X00002178  2
    X00002179  X00002179  5.7066060000000002e-08
    X00002180  X00002180  2
    X00002181  X00002181  2
    X00002182  X00002182  2
    X00002183  X00002183  2
    X00002184  X00002184  2
    X00002185  X00002185  2
    X00002186  X00002186  2
    X00002187  X00002187  2
    X00002188  X00002188  2
    X00002189  X00002189  2
    X00002190  X00002190  2
    X00002191  X00002191  6.0909499999999997e-06
    X00002192  X00002192  2
    X00002193  X00002193  2
    X00002194  X00002194  2
    X00002195  X00002195  2
    X00002196  X00002196  2
    X00002197  X00002197  2
    X00002198  X00002198  2
    X00002199  X00002199  6.0909499999999997e-06
    X00002200  X00002200  2
    X00002201  X00002201  2
    X00002202  X00002202  2
    X00002203  X00002203  2
    X00002204  X00002204  2
    X00002205  X00002205  2
    X00002206  X00002206  2
    X00002207  X00002207  2
    X00002208  X00002208  2
    X00002209  X00002209  2
    X00002210  X00002210  2
    X00002211  X00002211  3.1864840000000003e-11
    X00002212  X00002212  3.395032e-11
    X00002213  X00002213  3.1466820000000002e-08
    X00002214  X00002214  7.2246239999999994e-08
    X00002215  X00002215  1.5639299999999999e-07
    X00002216  X00002216  3.0402160000000001e-08
    X00002217  X00002217  2
    X00002218  X00002218  2
    X00002219  X00002219  5.4264080000000005e-10
    X00002220  X00002220  2
    X00002221  X00002221  2.235342e-08
    X00002222  X00002222  2
    X00002223  X00002223  2
    X00002224  X00002224  5.2395800000000001e-06
    X00002225  X00002225  2
    X00002226  X00002226  2
    X00002227  X00002227  2
    X00002228  X00002228  2
    X00002229  X00002229  2.2449179999999999e-08
    X00002230  X00002230  2
    X00002231  X00002231  2
    X00002232  X00002232  2
    X00002233  X00002233  2
    X00002234  X00002234  2
    X00002235  X00002235  2
    X00002236  X00002236  2
    X00002237  X00002237  2
    X00002238  X00002238  2
    X00002239  X00002239  2
    X00002240  X00002240  2
    X00002241  X00002241  3.7991400000000001e-08
    X00002242  X00002242  2
    X00002243  X00002243  2
    X00002244  X00002244  2.033756e-06
    X00002245  X00002245  2
    X00002246  X00002246  5.7110719999999998e-08
    X00002247  X00002247  2
    X00002248  X00002248  2
    X00002249  X00002249  1.2018939999999999e-07
    X00002250  X00002250  2
    X00002251  X00002251  1.5009939999999999e-10
    X00002252  X00002252  1.638941e-10
    X00002253  X00002253  2
    X00002254  X00002254  5.6845639999999996e-07
    X00002255  X00002255  1.5639299999999999e-07
    X00002256  X00002256  2
    X00002257  X00002257  2
    X00002258  X00002258  2
    X00002259  X00002259  1.809742e-09
    X00002260  X00002260  2
    X00002261  X00002261  4.541636e-06
    X00002262  X00002262  2
    X00002263  X00002263  2
    X00002264  X00002264  4.541636e-06
    X00002265  X00002265  2
    X00002266  X00002266  2
    X00002267  X00002267  2
    X00002268  X00002268  2
    X00002269  X00002269  2
    X00002270  X00002270  2
    X00002271  X00002271  1.053336e-09
    X00002272  X00002272  2.861082e-09
    X00002273  X00002273  4.6069460000000002e-08
    X00002274  X00002274  2.7587660000000001e-06
    X00002275  X00002275  2
    X00002276  X00002276  2
    X00002277  X00002277  2
    X00002278  X00002278  2
    X00002279  X00002279  1.7307780000000001e-09
    X00002280  X00002280  2
    X00002281  X00002281  4.3504460000000001e-11
    X00002282  X00002282  4.350616e-11
    X00002283  X00002283  4.8439280000000003e-06
    X00002284  X00002284  2
    X00002285  X00002285  2
    X00002286  X00002286  2
    X00002287  X00002287  2
    X00002288  X00002288  2
    X00002289  X00002289  1.401483e-06
    X00002290  X00002290  2
    X00002291  X00002291  2.704282e-07
    X00002292  X00002292  2
    X00002293  X00002293  2
    X00002294  X00002294  3.7676339999999999e-07
    X00002295  X00002295  2
    X00002296  X00002296  2
    X00002297  X00002297  2
    X00002298  X00002298  2
    X00002299  X00002299  9.5817559999999999e-07
    X00002300  X00002300  2
    X00002301  X00002301  2.0356180000000002e-08
    X00002302  X00002302  5.3956060000000003e-08
    X00002303  X00002303  1.135789e-07
    X00002304  X00002304  4.7186500000000001e-06
    X00002305  X00002305  2
    X00002306  X00002306  2
    X00002307  X00002307  2
    X00002308  X00002308  2
    X00002309  X00002309  4.6349520000000001e-08
    X00002310  X00002310  2
    X00002311  X00002311  1.2177079999999999e-08
    X00002312  X00002312  2
    X00002313  X00002313  2
    X00002314  X00002314  1.9695900000000001e-07
    X00002315  X00002315  2
    X00002316  X00002316  6.500872e-08
    X00002317  X00002317  2
    X00002318  X00002318  2
    X00002319  X00002319  1.621744e-08
    X00002320  X00002320  2
    X00002321  X00002321  3.084944e-07
    X00002322  X00002322  2
    X00002323  X00002323  9.41358e-07
    X00002324  X00002324  4.588724e-07
    X00002325  X00002325  2
    X00002326  X00002326  2
    X00002327  X00002327  2
    X00002328  X00002328  2
    X00002329  X00002329  2
    X00002330  X00002330  2
    X00002331  X00002331  2
    X00002332  X00002332  2
    X00002333  X00002333  2
    X00002334  X00002334  2
    X00002335  X00002335  2
    X00002336  X00002336  2
    X00002337  X00002337  2
    X00002338  X00002338  2
    X00002339  X00002339  2
    X00002340  X00002340  2
    X00002341  X00002341  2
    X00002342  X00002342  2
    X00002343  X00002343  2
    X00002344  X00002344  2
    X00002345  X00002345  2
    X00002346  X00002346  2
    X00002347  X00002347  2
    X00002348  X00002348  2
    X00002349  X00002349  2
    X00002350  X00002350  2
    X00002351  X00002351  1.439626e-06
    X00002352  X00002352  2
    X00002353  X00002353  2
    X00002354  X00002354  1.439626e-06
    X00002355  X00002355  2
    X00002356  X00002356  2
    X00002357  X00002357  2
    X00002358  X00002358  2
    X00002359  X00002359  2
    X00002360  X00002360  2
    X00002361  X00002361  1.740235e-09
    X00002362  X00002362  2
    X00002363  X00002363  2
    X00002364  X00002364  2
    X00002365  X00002365  2
    X00002366  X00002366  2
    X00002367  X00002367  2
    X00002368  X00002368  2
    X00002369  X00002369  1.740235e-09
    X00002370  X00002370  2
    X00002371  X00002371  2
    X00002372  X00002372  2
    X00002373  X00002373  2
    X00002374  X00002374  2
    X00002375  X00002375  2
    X00002376  X00002376  2
    X00002377  X00002377  2
    X00002378  X00002378  2
    X00002379  X00002379  2
    X00002380  X00002380  2
    X00002381  X00002381  1.4166010000000001e-10
    X00002382  X00002382  1.664946e-10
    X00002383  X00002383  9.9273320000000001e-08
    X00002384  X00002384  7.2246239999999994e-08
    X00002385  X00002385  1.5639299999999999e-07
    X00002386  X00002386  6.500872e-08
    X00002387  X00002387  2
    X00002388  X00002388  2
    X00002389  X00002389  9.9280719999999994e-10
    X00002390  X00002390  2
    X00002391  X00002391  2.235342e-08
    X00002392  X00002392  2
    X00002393  X00002393  2
    X00002394  X00002394  5.2395800000000001e-06
    X00002395  X00002395  2
    X00002396  X00002396  2
    X00002397  X00002397  2
    X00002398  X00002398  2
    X00002399  X00002399  2.2449179999999999e-08
    X00002400  X00002400  2
    X00002401  X00002401  2
    X00002402  X00002402  2
    X00002403  X00002403  2
    X00002404  X00002404  2
    X00002405  X00002405  2
    X00002406  X00002406  2
    X00002407  X00002407  2
    X00002408  X00002408  2
    X00002409  X00002409  2
    X00002410  X00002410  2
    X00002411  X00002411  3.8572739999999999e-07
    X00002412  X00002412  2
    X00002413  X00002413  2
    X00002414  X00002414  2.033756e-06
    X00002415  X00002415  2
    X00002416  X00002416  2
    X00002417  X00002417  2
    X00002418  X00002418  2
    X00002419  X00002419  4.7600799999999998e-07
    X00002420  X00002420  2
    X00002421  X00002421  1.5344599999999999e-10
    X00002422  X00002422  1.678909e-10
    X00002423  X00002423  2
    X00002424  X00002424  5.6845639999999996e-07
    X00002425  X00002425  1.5639299999999999e-07
    X00002426  X00002426  2
    X00002427  X00002427  2
    X00002428  X00002428  2
    X00002429  X00002429  1.809742e-09
    X00002430  X00002430  2
    X00002431  X00002431  4.541636e-06
    X00002432  X00002432  2
    X00002433  X00002433  2
    X00002434  X00002434  4.541636e-06
    X00002435  X00002435  2
    X00002436  X00002436  2
    X00002437  X00002437  2
    X00002438  X00002438  2
    X00002439  X00002439  2
    X00002440  X00002440  2
    X00002441  X00002441  2.7137079999999999e-09
    X00002442  X00002442  3.1787920000000001e-08
    X00002443  X00002443  2
    X00002444  X00002444  2.7587660000000001e-06
    X00002445  X00002445  2
    X00002446  X00002446  2
    X00002447  X00002447  2
    X00002448  X00002448  2
    X00002449  X00002449  2.9701919999999999e-09
    X00002450  X00002450  2
    X00002451  X00002451  4.8439280000000003e-06
    X00002452  X00002452  2
    X00002453  X00002453  4.8439280000000003e-06
    X00002454  X00002454  2
    X00002455  X00002455  2
    X00002456  X00002456  2
    X00002457  X00002457  2
    X00002458  X00002458  2
    X00002459  X00002459  2
    X00002460  X00002460  2
    X00002461  X00002461  2.704282e-07
    X00002462  X00002462  2
    X00002463  X00002463  2
    X00002464  X00002464  3.7676339999999999e-07
    X00002465  X00002465  2
    X00002466  X00002466  2
    X00002467  X00002467  2
    X00002468  X00002468  2
    X00002469  X00002469  9.5817559999999999e-07
    X00002470  X00002470  2
    X00002471  X00002471  2.8504320000000001e-08
    X00002472  X00002472  5.3956060000000003e-08
    X00002473  X00002473  1.135789e-07
    X00002474  X00002474  4.7186500000000001e-06
    X00002475  X00002475  2
    X00002476  X00002476  2
    X00002477  X00002477  2
    X00002478  X00002478  2
    X00002479  X00002479  1.3275890000000001e-07
    X00002480  X00002480  2
    X00002481  X00002481  1.2177079999999999e-08
    X00002482  X00002482  2
    X00002483  X00002483  2
    X00002484  X00002484  1.9695900000000001e-07
    X00002485  X00002485  2
    X00002486  X00002486  6.500872e-08
    X00002487  X00002487  2
    X00002488  X00002488  2
    X00002489  X00002489  1.621744e-08
    X00002490  X00002490  2
    X00002491  X00002491  3.084944e-07
    X00002492  X00002492  2
    X00002493  X00002493  9.41358e-07
    X00002494  X00002494  4.588724e-07
    X00002495  X00002495  2
    X00002496  X00002496  2
    X00002497  X00002497  2
    X00002498  X00002498  2
    X00002499  X00002499  2
    X00002500  X00002500  2
    X00002501  X00002501  2
    X00002502  X00002502  2
    X00002503  X00002503  2
    X00002504  X00002504  2
    X00002505  X00002505  2
    X00002506  X00002506  2
    X00002507  X00002507  2
    X00002508  X00002508  2
    X00002509  X00002509  2
    X00002510  X00002510  2
    X00002511  X00002511  2
    X00002512  X00002512  2
    X00002513  X00002513  2
    X00002514  X00002514  2
    X00002515  X00002515  2
    X00002516  X00002516  2
    X00002517  X00002517  2
    X00002518  X00002518  2
    X00002519  X00002519  2
    X00002520  X00002520  2
    X00002521  X00002521  1.439626e-06
    X00002522  X00002522  2
    X00002523  X00002523  2
    X00002524  X00002524  1.439626e-06
    X00002525  X00002525  2
    X00002526  X00002526  2
    X00002527  X00002527  2
    X00002528  X00002528  2
    X00002529  X00002529  2
    X00002530  X00002530  2
    X00002531  X00002531  8.971224e-07
    X00002532  X00002532  2
    X00002533  X00002533  2
    X00002534  X00002534  2
    X00002535  X00002535  2
    X00002536  X00002536  2
    X00002537  X00002537  2
    X00002538  X00002538  2
    X00002539  X00002539  8.971224e-07
    X00002540  X00002540  2
    X00002541  X00002541  2
    X00002542  X00002542  2
    X00002543  X00002543  2
    X00002544  X00002544  2
    X00002545  X00002545  2
    X00002546  X00002546  2
    X00002547  X00002547  2
    X00002548  X00002548  2
    X00002549  X00002549  2
    X00002550  X00002550  2
    X00002551  X00002551  4.1112679999999997e-11
    X00002552  X00002552  4.2646460000000001e-11
    X00002553  X00002553  4.6069460000000002e-08
    X00002554  X00002554  2
    X00002555  X00002555  2
    X00002556  X00002556  5.7110719999999998e-08
    X00002557  X00002557  2
    X00002558  X00002558  2
    X00002559  X00002559  1.196752e-09
    X00002560  X00002560  2
    X00002561  X00002561  2
    X00002562  X00002562  2
    X00002563  X00002563  2
    X00002564  X00002564  2
    X00002565  X00002565  2
    X00002566  X00002566  2
    X00002567  X00002567  2
    X00002568  X00002568  2
    X00002569  X00002569  2
    X00002570  X00002570  2
    X00002571  X00002571  2
    X00002572  X00002572  2
    X00002573  X00002573  2
    X00002574  X00002574  2
    X00002575  X00002575  2
    X00002576  X00002576  2
    X00002577  X00002577  2
    X00002578  X00002578  2
    X00002579  X00002579  2
    X00002580  X00002580  2
    X00002581  X00002581  4.214208e-08
    X00002582  X00002582  2
    X00002583  X00002583  2
    X00002584  X00002584  2
    X00002585  X00002585  2
    X00002586  X00002586  5.7110719999999998e-08
    X00002587  X00002587  2
    X00002588  X00002588  2
    X00002589  X00002589  1.6078720000000001e-07
    X00002590  X00002590  2
    X00002591  X00002591  6.882454e-09
    X00002592  X00002592  6.882454e-09
    X00002593  X00002593  2
    X00002594  X00002594  2
    X00002595  X00002595  2
    X00002596  X00002596  2
    X00002597  X00002597  2
    X00002598  X00002598  2
    X00002599  X00002599  2
    X00002600  X00002600  2
    X00002601  X00002601  2
    X00002602  X00002602  2
    X00002603  X00002603  2
    X00002604  X00002604  2
    X00002605  X00002605  2
    X00002606  X00002606  2
    X00002607  X00002607  2
    X00002608  X00002608  2
    X00002609  X00002609  2
    X00002610  X00002610  2
    X00002611  X00002611  1.7215700000000001e-09
    X00002612  X00002612  3.1440659999999998e-09
    X00002613  X00002613  4.6069460000000002e-08
    X00002614  X00002614  2
    X00002615  X00002615  2
    X00002616  X00002616  2
    X00002617  X00002617  2
    X00002618  X00002618  2
    X00002619  X00002619  4.1476899999999998e-09
    X00002620  X00002620  2
    X00002621  X00002621  4.3504840000000001e-11
    X00002622  X00002622  4.350616e-11
    X00002623  X00002623  2
    X00002624  X00002624  2
    X00002625  X00002625  2
    X00002626  X00002626  2
    X00002627  X00002627  2
    X00002628  X00002628  2
    X00002629  X00002629  1.401483e-06
    X00002630  X00002630  2
    X00002631  X00002631  2
    X00002632  X00002632  2
    X00002633  X00002633  2
    X00002634  X00002634  2
    X00002635  X00002635  2
    X00002636  X00002636  2
    X00002637  X00002637  2
    X00002638  X00002638  2
    X00002639  X00002639  2
    X00002640  X00002640  2
    X00002641  X00002641  7.121112e-08
    X00002642  X00002642  2
    X00002643  X00002643  2
    X00002644  X00002644  2
    X00002645  X00002645  2
    X00002646  X00002646  2
    X00002647  X00002647  2
    X00002648  X00002648  2
    X00002649  X00002649  7.121112e-08
    X00002650  X00002650  2
    X00002651  X00002651  2
    X00002652  X00002652  2
    X00002653  X00002653  2
    X00002654  X00002654  2
    X00002655  X00002655  2
    X00002656  X00002656  2
    X00002657  X00002657  2
    X00002658  X00002658  2
    X00002659  X00002659  2
    X00002660  X00002660  2
    X00002661  X00002661  2
    X00002662  X00002662  2
    X00002663  X00002663  2
    X00002664  X00002664  2
    X00002665  X00002665  2
    X00002666  X00002666  2
    X00002667  X00002667  2
    X00002668  X00002668  2
    X00002669  X00002669  2
    X00002670  X00002670  2
    X00002671  X00002671  2
    X00002672  X00002672  2
    X00002673  X00002673  2
    X00002674  X00002674  2
    X00002675  X00002675  2
    X00002676  X00002676  2
    X00002677  X00002677  2
    X00002678  X00002678  2
    X00002679  X00002679  2
    X00002680  X00002680  2
    X00002681  X00002681  2
    X00002682  X00002682  2
    X00002683  X00002683  2
    X00002684  X00002684  2
    X00002685  X00002685  2
    X00002686  X00002686  2
    X00002687  X00002687  2
    X00002688  X00002688  2
    X00002689  X00002689  2
    X00002690  X00002690  2
    X00002691  X00002691  2
    X00002692  X00002692  2
    X00002693  X00002693  2
    X00002694  X00002694  2
    X00002695  X00002695  2
    X00002696  X00002696  2
    X00002697  X00002697  2
    X00002698  X00002698  2
    X00002699  X00002699  2
    X00002700  X00002700  2
    X00002701  X00002701  1.743618e-09
    X00002702  X00002702  2
    X00002703  X00002703  2
    X00002704  X00002704  2
    X00002705  X00002705  2
    X00002706  X00002706  2
    X00002707  X00002707  2
    X00002708  X00002708  2
    X00002709  X00002709  1.743618e-09
    X00002710  X00002710  2
    X00002711  X00002711  2
    X00002712  X00002712  2
    X00002713  X00002713  2
    X00002714  X00002714  2
    X00002715  X00002715  2
    X00002716  X00002716  2
    X00002717  X00002717  2
    X00002718  X00002718  2
    X00002719  X00002719  2
    X00002720  X00002720  2
    X00002721  X00002721  2
    X00002722  X00002722  2
    X00002723  X00002723  2
    X00002724  X00002724  2
    X00002725  X00002725  2
    X00002726  X00002726  2
    X00002727  X00002727  2
    X00002728  X00002728  2
    X00002729  X00002729  2
    X00002730  X00002730  2
    X00002731  X00002731  2
    X00002732  X00002732  2
    X00002733  X00002733  2
    X00002734  X00002734  2
    X00002735  X00002735  2
    X00002736  X00002736  2
    X00002737  X00002737  2
    X00002738  X00002738  2
    X00002739  X00002739  2
    X00002740  X00002740  2
    X00002741  X00002741  2
    X00002742  X00002742  2
    X00002743  X00002743  2
    X00002744  X00002744  2
    X00002745  X00002745  2
    X00002746  X00002746  2
    X00002747  X00002747  2
    X00002748  X00002748  2
    X00002749  X00002749  2
    X00002750  X00002750  2
    X00002751  X00002751  2
    X00002752  X00002752  2
    X00002753  X00002753  2
    X00002754  X00002754  2
    X00002755  X00002755  2
    X00002756  X00002756  2
    X00002757  X00002757  2
    X00002758  X00002758  2
    X00002759  X00002759  2
    X00002760  X00002760  2
    X00002761  X00002761  2
    X00002762  X00002762  2
    X00002763  X00002763  2
    X00002764  X00002764  2
    X00002765  X00002765  2
    X00002766  X00002766  2
    X00002767  X00002767  2
    X00002768  X00002768  2
    X00002769  X00002769  2
    X00002770  X00002770  2
    X00002771  X00002771  2
    X00002772  X00002772  2
    X00002773  X00002773  2
    X00002774  X00002774  2
    X00002775  X00002775  2
    X00002776  X00002776  2
    X00002777  X00002777  2
    X00002778  X00002778  2
    X00002779  X00002779  2
    X00002780  X00002780  2
    X00002781  X00002781  2
    X00002782  X00002782  2
    X00002783  X00002783  2
    X00002784  X00002784  2
    X00002785  X00002785  2
    X00002786  X00002786  2
    X00002787  X00002787  2
    X00002788  X00002788  2
    X00002789  X00002789  2
    X00002790  X00002790  2
    X00002791  X00002791  2
    X00002792  X00002792  2
    X00002793  X00002793  2
    X00002794  X00002794  2
    X00002795  X00002795  2
    X00002796  X00002796  2
    X00002797  X00002797  2
    X00002798  X00002798  2
    X00002799  X00002799  2
    X00002800  X00002800  2
    X00002801  X00002801  2
    X00002802  X00002802  2
    X00002803  X00002803  2
    X00002804  X00002804  2
    X00002805  X00002805  2
    X00002806  X00002806  2
    X00002807  X00002807  2
    X00002808  X00002808  2
    X00002809  X00002809  2
    X00002810  X00002810  2
    X00002811  X00002811  2
    X00002812  X00002812  2
    X00002813  X00002813  2
    X00002814  X00002814  2
    X00002815  X00002815  2
    X00002816  X00002816  2
    X00002817  X00002817  2
    X00002818  X00002818  2
    X00002819  X00002819  2
    X00002820  X00002820  2
    X00002821  X00002821  2
    X00002822  X00002822  2
    X00002823  X00002823  2
    X00002824  X00002824  2
    X00002825  X00002825  2
    X00002826  X00002826  2
    X00002827  X00002827  2
    X00002828  X00002828  2
    X00002829  X00002829  2
    X00002830  X00002830  2
    X00002831  X00002831  2
    X00002832  X00002832  2
    X00002833  X00002833  2
    X00002834  X00002834  2
    X00002835  X00002835  2
    X00002836  X00002836  2
    X00002837  X00002837  2
    X00002838  X00002838  2
    X00002839  X00002839  2
    X00002840  X00002840  2
    X00002841  X00002841  2
    X00002842  X00002842  2
    X00002843  X00002843  2
    X00002844  X00002844  2
    X00002845  X00002845  2
    X00002846  X00002846  2
    X00002847  X00002847  2
    X00002848  X00002848  2
    X00002849  X00002849  2
    X00002850  X00002850  2
    X00002851  X00002851  2
    X00002852  X00002852  2
    X00002853  X00002853  2
    X00002854  X00002854  2
    X00002855  X00002855  2
    X00002856  X00002856  2
    X00002857  X00002857  2
    X00002858  X00002858  2
    X00002859  X00002859  2
    X00002860  X00002860  2
    X00002861  X00002861  2
    X00002862  X00002862  2
    X00002863  X00002863  2
    X00002864  X00002864  2
    X00002865  X00002865  2
    X00002866  X00002866  2
    X00002867  X00002867  2
    X00002868  X00002868  2
    X00002869  X00002869  2
    X00002870  X00002870  2
    X00002871  X00002871  2
    X00002872  X00002872  2
    X00002873  X00002873  2
    X00002874  X00002874  2
    X00002875  X00002875  2
    X00002876  X00002876  2
    X00002877  X00002877  2
    X00002878  X00002878  2
    X00002879  X00002879  2
    X00002880  X00002880  2
    X00002881  X00002881  2
    X00002882  X00002882  2
    X00002883  X00002883  2
    X00002884  X00002884  2
    X00002885  X00002885  2
    X00002886  X00002886  2
    X00002887  X00002887  2
    X00002888  X00002888  2
    X00002889  X00002889  2
    X00002890  X00002890  2
RHS
    RHS1  C00000001  0
    RHS1  C00000002  0
    RHS1  C00000003  0
    RHS1  C00000004  0
    RHS1  C00000005  0
    RHS1  C00000006  0
    RHS1  C00000007  0
    RHS1  C00000008  0
    RHS1  C00000009  0
    RHS1  C00000010  0
    RHS1  C00000011  0
    RHS1  C00000012  0
    RHS1  C00000013  0
    RHS1  C00000014  0
    RHS1  C00000015  0
    RHS1  C00000016  0
    RHS1  C00000017  0
    RHS1  C00000018  0
    RHS1  C00000019  0
    RHS1  C00000020  0
    RHS1  C00000021  0
    RHS1  C00000022  0
    RHS1  C00000023  0
    RHS1  C00000024  0
    RHS1  C00000025  0
    RHS1  C00000026  0
    RHS1  C00000027  0
    RHS1  C00000028  0
    RHS1  C00000029  0
    RHS1  C00000030  0
    RHS1  C00000031  0
    RHS1  C00000032  0
    RHS1  C00000033  0
    RHS1  C00000034  0
    RHS1  C00000035  0
    RHS1  C00000036  0
    RHS1  C00000037  0
    RHS1  C00000038  0
    RHS1  C00000039  0
    RHS1  C00000040  0
    RHS1  C00000041  0
    RHS1  C00000042  0
    RHS1  C00000043  0
    RHS1  C00000044  0
    RHS1  C00000045  0
    RHS1  C00000046  0
    RHS1  C00000047  0
    RHS1  C00000048  0
    RHS1  C00000049  0
    RHS1  C00000050  0
    RHS1  C00000051  0
    RHS1  C00000052  0
    RHS1  C00000053  0
    RHS1  C00000054  0
    RHS1  C00000055  0
    RHS1  C00000056  0
    RHS1  C00000057  0
    RHS1  C00000058  0
    RHS1  C00000059  0
    RHS1  C00000060  0
    RHS1  C00000061  0
    RHS1  C00000062  0
    RHS1  C00000063  0
    RHS1  C00000064  0
    RHS1  C00000065  0
    RHS1  C00000066  0
    RHS1  C00000067  0
    RHS1  C00000068  0
    RHS1  C00000069  0
    RHS1  C00000070  0
    RHS1  C00000071  0
    RHS1  C00000072  0
    RHS1  C00000073  0
    RHS1  C00000074  0
    RHS1  C00000075  0
    RHS1  C00000076  0
    RHS1  C00000077  0
    RHS1  C00000078  0
    RHS1  C00000079  0
    RHS1  C00000080  0
    RHS1  C00000081  0
    RHS1  C00000082  0
    RHS1  C00000083  0
    RHS1  C00000084  0
    RHS1  C00000085  0
    RHS1  C00000086  0
    RHS1  C00000087  0
    RHS1  C00000088  0
    RHS1  C00000089  0
    RHS1  C00000090  0
    RHS1  C00000091  0
    RHS1  C00000092  0
    RHS1  C00000093  0
    RHS1  C00000094  0
    RHS1  C00000095  0
    RHS1  C00000096  0
    RHS1  C00000097  0
    RHS1  C00000098  0
    RHS1  C00000099  0
    RHS1  C00000100  0
    RHS1  C00000101  0
    RHS1  C00000102  0
    RHS1  C00000103  0
    RHS1  C00000104  0
    RHS1  C00000105  0
    RHS1  C00000106  0
    RHS1  C00000107  0
    RHS1  C00000108  0
    RHS1  C00000109  0
    RHS1  C00000110  0
    RHS1  C00000111  0
    RHS1  C00000112  0
    RHS1  C00000113  0
    RHS1  C00000114  0
    RHS1  C00000115  0
    RHS1  C00000116  0
    RHS1  C00000117  0
    RHS1  C00000118  0
    RHS1  C00000119  0
    RHS1  C00000120  0
    RHS1  C00000121  0
    RHS1  C00000122  0
    RHS1  C00000123  0
    RHS1  C00000124  0
    RHS1  C00000125  0
    RHS1  C00000126  0
    RHS1  C00000127  0
    RHS1  C00000128  0
    RHS1  C00000129  0
    RHS1  C00000130  0
    RHS1  C00000131  0
    RHS1  C00000132  0
    RHS1  C00000133  0
    RHS1  C00000134  0
    RHS1  C00000135  0
    RHS1  C00000136  0
    RHS1  C00000137  0
    RHS1  C00000138  0
    RHS1  C00000139  0
    RHS1  C00000140  0
    RHS1  C00000141  0
    RHS1  C00000142  0
    RHS1  C00000143  0
    RHS1  C00000144  0
    RHS1  C00000145  0
    RHS1  C00000146  0
    RHS1  C00000147  0
    RHS1  C00000148  0
    RHS1  C00000149  0
    RHS1  C00000150  0
    RHS1  C00000151  0
    RHS1  C00000152  0
    RHS1  C00000153  0
    RHS1  C00000154  0
    RHS1  C00000155  0
    RHS1  C00000156  0
    RHS1  C00000157  0
    RHS1  C00000158  0
    RHS1  C00000159  0
    RHS1  C00000160  0
    RHS1  C00000161  0
    RHS1  C00000162  0
    RHS1  C00000163  0
    RHS1  C00000164  0
    RHS1  C00000165  0
    RHS1  C00000166  0
    RHS1  C00000167  0
    RHS1  C00000168  0
    RHS1  C00000169  0
    RHS1  C00000170  0
    RHS1  C00000171  0
    RHS1  C00000172  0
    RHS1  C00000173  0
    RHS1  C00000174  0
    RHS1  C00000175  0
    RHS1  C00000176  0
    RHS1  C00000177  0
    RHS1  C00000178  0
    RHS1  C00000179  0
    RHS1  C00000180  0
    RHS1  C00000181  0
    RHS1  C00000182  0
    RHS1  C00000183  0
    RHS1  C00000184  0
    RHS1  C00000185  0
    RHS1  C00000186  0
    RHS1  C00000187  0
    RHS1  C00000188  0
    RHS1  C00000189  0
    RHS1  C00000190  0
    RHS1  C00000191  0
    RHS1  C00000192  0
    RHS1  C00000193  0
    RHS1  C00000194  0
    RHS1  C00000195  0
    RHS1  C00000196  0
    RHS1  C00000197  0
    RHS1  C00000198  0
    RHS1  C00000199  0
    RHS1  C00000200  0
    RHS1  C00000201  0
    RHS1  C00000202  0
    RHS1  C00000203  0
    RHS1  C00000204  0
    RHS1  C00000205  0
    RHS1  C00000206  0
    RHS1  C00000207  0
    RHS1  C00000208  0
    RHS1  C00000209  0
    RHS1  C00000210  0
    RHS1  C00000211  0
    RHS1  C00000212  0
    RHS1  C00000213  0
    RHS1  C00000214  0
    RHS1  C00000215  0
    RHS1  C00000216  0
    RHS1  C00000217  0
    RHS1  C00000218  0
    RHS1  C00000219  0
    RHS1  C00000220  0
    RHS1  C00000221  0
    RHS1  C00000222  0
    RHS1  C00000223  0
    RHS1  C00000224  0
    RHS1  C00000225  0
    RHS1  C00000226  0
    RHS1  C00000227  0
    RHS1  C00000228  0
    RHS1  C00000229  0
    RHS1  C00000230  0
    RHS1  C00000231  0
    RHS1  C00000232  0
    RHS1  C00000233  0
    RHS1  C00000234  0
    RHS1  C00000235  0
    RHS1  C00000236  0
    RHS1  C00000237  0
    RHS1  C00000238  0
    RHS1  C00000239  0
    RHS1  C00000240  0
    RHS1  C00000241  0
    RHS1  C00000242  0
    RHS1  C00000243  0
    RHS1  C00000244  0
    RHS1  C00000245  0
    RHS1  C00000246  0
    RHS1  C00000247  0
    RHS1  C00000248  0
    RHS1  C00000249  0
    RHS1  C00000250  0
    RHS1  C00000251  0
    RHS1  C00000252  0
    RHS1  C00000253  0
    RHS1  C00000254  0
    RHS1  C00000255  0
    RHS1  C00000256  0
    RHS1  C00000257  0
    RHS1  C00000258  0
    RHS1  C00000259  0
    RHS1  C00000260  0
    RHS1  C00000261  0
    RHS1  C00000262  0
    RHS1  C00000263  0
    RHS1  C00000264  0
    RHS1  C00000265  0
    RHS1  C00000266  0
    RHS1  C00000267  0
    RHS1  C00000268  0
    RHS1  C00000269  0
    RHS1  C00000270  0
    RHS1  C00000271  0
    RHS1  C00000272  0
    RHS1  C00000273  0
    RHS1  C00000274  0
    RHS1  C00000275  0
    RHS1  C00000276  0
    RHS1  C00000277  0
    RHS1  C00000278  0
    RHS1  C00000279  0
    RHS1  C00000280  0
    RHS1  C00000281  0
    RHS1  C00000282  0
    RHS1  C00000283  0
    RHS1  C00000284  0
    RHS1  C00000285  0
    RHS1  C00000286  0
    RHS1  C00000287  0
    RHS1  C00000288  0
    RHS1  C00000289  0
    RHS1  C00000290  0
    RHS1  C00000291  0
    RHS1  C00000292  0
    RHS1  C00000293  0
    RHS1  C00000294  0
    RHS1  C00000295  0
    RHS1  C00000296  0
    RHS1  C00000297  0
    RHS1  C00000298  0
    RHS1  C00000299  0
    RHS1  C00000300  0
    RHS1  C00000301  0
    RHS1  C00000302  0
    RHS1  C00000303  0
    RHS1  C00000304  0
    RHS1  C00000305  0
    RHS1  C00000306  0
    RHS1  C00000307  0
    RHS1  C00000308  0
    RHS1  C00000309  0
    RHS1  C00000310  0
    RHS1  C00000311  0
    RHS1  C00000312  0
    RHS1  C00000313  0
    RHS1  C00000314  0
    RHS1  C00000315  0
    RHS1  C00000316  0
    RHS1  C00000317  0
    RHS1  C00000318  0
    RHS1  C00000319  0
    RHS1  C00000320  0
    RHS1  C00000321  0
    RHS1  C00000322  0
    RHS1  C00000323  0
    RHS1  C00000324  0
    RHS1  C00000325  0
    RHS1  C00000326  0
    RHS1  C00000327  0
    RHS1  C00000328  0
    RHS1  C00000329  0
    RHS1  C00000330  0
    RHS1  C00000331  0
    RHS1  C00000332  0
    RHS1  C00000333  0
    RHS1  C00000334  0
    RHS1  C00000335  0
    RHS1  C00000336  0
    RHS1  C00000337  0
    RHS1  C00000338  0
    RHS1  C00000339  0
    RHS1  C00000340  0
    RHS1  C00000341  0
    RHS1  C00000342  0
    RHS1  C00000343  0
    RHS1  C00000344  0
    RHS1  C00000345  0
    RHS1  C00000346  0
    RHS1  C00000347  0
    RHS1  C00000348  0
    RHS1  C00000349  0
    RHS1  C00000350  0
    RHS1  C00000351  0
    RHS1  C00000352  0
    RHS1  C00000353  0
    RHS1  C00000354  0
    RHS1  C00000355  0
    RHS1  C00000356  0
    RHS1  C00000357  0
    RHS1  C00000358  0
    RHS1  C00000359  0
    RHS1  C00000360  0
    RHS1  C00000361  0
    RHS1  C00000362  0
    RHS1  C00000363  0
    RHS1  C00000364  0
    RHS1  C00000365  0
    RHS1  C00000366  0
    RHS1  C00000367  0
    RHS1  C00000368  0
    RHS1  C00000369  0
    RHS1  C00000370  0
    RHS1  C00000371  0
    RHS1  C00000372  0
    RHS1  C00000373  0
    RHS1  C00000374  0
    RHS1  C00000375  0
    RHS1  C00000376  0
    RHS1  C00000377  0
    RHS1  C00000378  0
    RHS1  C00000379  0
    RHS1  C00000380  0
    RHS1  C00000381  0
    RHS1  C00000382  0
    RHS1  C00000383  0
    RHS1  C00000384  0
    RHS1  C00000385  0
    RHS1  C00000386  0
    RHS1  C00000387  0
    RHS1  C00000388  0
    RHS1  C00000389  0
    RHS1  C00000390  0
    RHS1  C00000391  0
    RHS1  C00000392  0
    RHS1  C00000393  0
    RHS1  C00000394  0
    RHS1  C00000395  0
    RHS1  C00000396  0
    RHS1  C00000397  0
    RHS1  C00000398  0
    RHS1  C00000399  0
    RHS1  C00000400  0
    RHS1  C00000401  0
    RHS1  C00000402  0
    RHS1  C00000403  0
    RHS1  C00000404  0
    RHS1  C00000405  0
    RHS1  C00000406  0
    RHS1  C00000407  0
    RHS1  C00000408  0
    RHS1  C00000409  0
    RHS1  C00000410  0
    RHS1  C00000411  0
    RHS1  C00000412  0
    RHS1  C00000413  0
    RHS1  C00000414  0
    RHS1  C00000415  0
    RHS1  C00000416  0
    RHS1  C00000417  0
    RHS1  C00000418  0
    RHS1  C00000419  0
    RHS1  C00000420  0
    RHS1  C00000421  0
    RHS1  C00000422  0
    RHS1  C00000423  0
    RHS1  C00000424  0
    RHS1  C00000425  0
    RHS1  C00000426  0
    RHS1  C00000427  0
    RHS1  C00000428  0
    RHS1  C00000429  0
    RHS1  C00000430  0
    RHS1  C00000431  0
    RHS1  C00000432  0
    RHS1  C00000433  0
    RHS1  C00000434  0
    RHS1  C00000435  0
    RHS1  C00000436  0
    RHS1  C00000437  0
    RHS1  C00000438  0
    RHS1  C00000439  0
    RHS1  C00000440  0
    RHS1  C00000441  0
    RHS1  C00000442  0
    RHS1  C00000443  0
    RHS1  C00000444  0
    RHS1  C00000445  0
    RHS1  C00000446  0
    RHS1  C00000447  0
    RHS1  C00000448  0
    RHS1  C00000449  0
    RHS1  C00000450  0
    RHS1  C00000451  0
    RHS1  C00000452  0
    RHS1  C00000453  0
    RHS1  C00000454  0
    RHS1  C00000455  0
    RHS1  C00000456  0
    RHS1  C00000457  0
    RHS1  C00000458  0
    RHS1  C00000459  0
    RHS1  C00000460  0
    RHS1  C00000461  0
    RHS1  C00000462  0
    RHS1  C00000463  0
    RHS1  C00000464  0
    RHS1  C00000465  0
    RHS1  C00000466  0
    RHS1  C00000467  0
    RHS1  C00000468  0
    RHS1  C00000469  0
    RHS1  C00000470  0
    RHS1  C00000471  0
    RHS1  C00000472  0
    RHS1  C00000473  0
    RHS1  C00000474  0
    RHS1  C00000475  0
    RHS1  C00000476  0
    RHS1  C00000477  0
    RHS1  C00000478  0
    RHS1  C00000479  0
    RHS1  C00000480  0
    RHS1  C00000481  0
    RHS1  C00000482  0
    RHS1  C00000483  0
    RHS1  C00000484  0
    RHS1  C00000485  0
    RHS1  C00000486  0
    RHS1  C00000487  0
    RHS1  C00000488  0
    RHS1  C00000489  0
    RHS1  C00000490  0
    RHS1  C00000491  0
    RHS1  C00000492  0
    RHS1  C00000493  0
    RHS1  C00000494  0
    RHS1  C00000495  0
    RHS1  C00000496  0
    RHS1  C00000497  0
    RHS1  C00000498  0
    RHS1  C00000499  0
    RHS1  C00000500  0
    RHS1  C00000501  0
    RHS1  C00000502  0
    RHS1  C00000503  0
    RHS1  C00000504  0
    RHS1  C00000505  0
    RHS1  C00000506  0
    RHS1  C00000507  0
    RHS1  C00000508  0
    RHS1  C00000509  0
    RHS1  C00000510  0
    RHS1  C00000511  0
    RHS1  C00000512  0
    RHS1  C00000513  0
    RHS1  C00000514  0
    RHS1  C00000515  0
    RHS1  C00000516  0
    RHS1  C00000517  0
    RHS1  C00000518  0
    RHS1  C00000519  0
    RHS1  C00000520  0
    RHS1  C00000521  0
    RHS1  C00000522  0
    RHS1  C00000523  0
    RHS1  C00000524  0
    RHS1  C00000525  0
    RHS1  C00000526  0
    RHS1  C00000527  0
    RHS1  C00000528  0
    RHS1  C00000529  0
    RHS1  C00000530  0
    RHS1  C00000531  0
    RHS1  C00000532  0
    RHS1  C00000533  0
    RHS1  C00000534  0
    RHS1  C00000535  0
    RHS1  C00000536  0
    RHS1  C00000537  0
    RHS1  C00000538  0
    RHS1  C00000539  0
    RHS1  C00000540  0
    RHS1  C00000541  0
    RHS1  C00000542  0
    RHS1  C00000543  0
    RHS1  C00000544  0
    RHS1  C00000545  0
    RHS1  C00000546  0
    RHS1  C00000547  0
    RHS1  C00000548  0
    RHS1  C00000549  0
    RHS1  C00000550  0
    RHS1  C00000551  0
    RHS1  C00000552  0
    RHS1  C00000553  0
    RHS1  C00000554  0
    RHS1  C00000555  0
    RHS1  C00000556  0
    RHS1  C00000557  0
    RHS1  C00000558  0
    RHS1  C00000559  0
    RHS1  C00000560  0
    RHS1  C00000561  0
    RHS1  C00000562  0
    RHS1  C00000563  0
    RHS1  C00000564  0
    RHS1  C00000565  0
    RHS1  C00000566  0
    RHS1  C00000567  0
    RHS1  C00000568  0
    RHS1  C00000569  0
    RHS1  C00000570  0
    RHS1  C00000571  0
    RHS1  C00000572  0
    RHS1  C00000573  0
    RHS1  C00000574  0
    RHS1  C00000575  0
    RHS1  C00000576  0
    RHS1  C00000577  0
    RHS1  C00000578  0
    RHS1  C00000579  0
    RHS1  C00000580  0
    RHS1  C00000581  0
    RHS1  C00000582  0
    RHS1  C00000583  0
    RHS1  C00000584  0
    RHS1  C00000585  0
    RHS1  C00000586  0
    RHS1  C00000587  0
    RHS1  C00000588  0
    RHS1  C00000589  0
    RHS1  C00000590  0
    RHS1  C00000591  0
    RHS1  C00000592  0
    RHS1  C00000593  0
    RHS1  C00000594  0
    RHS1  C00000595  0
    RHS1  C00000596  0
    RHS1  C00000597  0
    RHS1  C00000598  0
    RHS1  C00000599  0
    RHS1  C00000600  0
    RHS1  C00000601  0
    RHS1  C00000602  0
    RHS1  C00000603  0
    RHS1  C00000604  0
    RHS1  C00000605  0
    RHS1  C00000606  0
    RHS1  C00000607  0
    RHS1  C00000608  0
    RHS1  C00000609  0
    RHS1  C00000610  0
    RHS1  C00000611  0
    RHS1  C00000612  0
    RHS1  C00000613  0
    RHS1  C00000614  0
    RHS1  C00000615  0
    RHS1  C00000616  0
    RHS1  C00000617  0
    RHS1  C00000618  0
    RHS1  C00000619  0
    RHS1  C00000620  0
    RHS1  C00000621  0
    RHS1  C00000622  0
    RHS1  C00000623  0
    RHS1  C00000624  0
    RHS1  C00000625  0
    RHS1  C00000626  0
    RHS1  C00000627  0
    RHS1  C00000628  0
    RHS1  C00000629  0
    RHS1  C00000630  0
    RHS1  C00000631  0
    RHS1  C00000632  0
    RHS1  C00000633  0
    RHS1  C00000634  0
    RHS1  C00000635  0
    RHS1  C00000636  0
    RHS1  C00000637  0
    RHS1  C00000638  0
    RHS1  C00000639  0
    RHS1  C00000640  0
    RHS1  C00000641  0
    RHS1  C00000642  0
    RHS1  C00000643  0
    RHS1  C00000644  0
    RHS1  C00000645  0
    RHS1  C00000646  0
    RHS1  C00000647  0
    RHS1  C00000648  0
    RHS1  C00000649  0
    RHS1  C00000650  0
    RHS1  C00000651  0
    RHS1  C00000652  0
    RHS1  C00000653  0
    RHS1  C00000654  0
    RHS1  C00000655  0
    RHS1  C00000656  0
    RHS1  C00000657  0
    RHS1  C00000658  0
    RHS1  C00000659  0
    RHS1  C00000660  0
    RHS1  C00000661  0
    RHS1  C00000662  0
    RHS1  C00000663  0
    RHS1  C00000664  0
    RHS1  C00000665  0
    RHS1  C00000666  0
    RHS1  C00000667  0
    RHS1  C00000668  0
    RHS1  C00000669  0
    RHS1  C00000670  0
    RHS1  C00000671  0
    RHS1  C00000672  0
    RHS1  C00000673  0
    RHS1  C00000674  0
    RHS1  C00000675  0
    RHS1  C00000676  0
    RHS1  C00000677  0
    RHS1  C00000678  0
    RHS1  C00000679  0
    RHS1  C00000680  0
    RHS1  C00000681  0
    RHS1  C00000682  0
    RHS1  C00000683  0
    RHS1  C00000684  0
    RHS1  C00000685  0
    RHS1  C00000686  0
    RHS1  C00000687  0
    RHS1  C00000688  0
    RHS1  C00000689  0
    RHS1  C00000690  0
    RHS1  C00000691  0
    RHS1  C00000692  0
    RHS1  C00000693  0
    RHS1  C00000694  0
    RHS1  C00000695  0
    RHS1  C00000696  0
    RHS1  C00000697  0
    RHS1  C00000698  0
    RHS1  C00000699  0
    RHS1  C00000700  0
    RHS1  C00000701  0
    RHS1  C00000702  0
    RHS1  C00000703  0
    RHS1  C00000704  0
    RHS1  C00000705  0
    RHS1  C00000706  0
    RHS1  C00000707  0
    RHS1  C00000708  0
    RHS1  C00000709  0
    RHS1  C00000710  0
    RHS1  C00000711  0
    RHS1  C00000712  0
    RHS1  C00000713  0
    RHS1  C00000714  0
    RHS1  C00000715  0
    RHS1  C00000716  0
    RHS1  C00000717  0
    RHS1  C00000718  0
    RHS1  C00000719  0
    RHS1  C00000720  0
    RHS1  C00000721  0
    RHS1  C00000722  0
    RHS1  C00000723  0
    RHS1  C00000724  0
    RHS1  C00000725  0
    RHS1  C00000726  0
    RHS1  C00000727  0
    RHS1  C00000728  0
    RHS1  C00000729  0
    RHS1  C00000730  0
    RHS1  C00000731  0
    RHS1  C00000732  0
    RHS1  C00000733  0
    RHS1  C00000734  0
    RHS1  C00000735  0
    RHS1  C00000736  0
    RHS1  C00000737  0
    RHS1  C00000738  0
    RHS1  C00000739  0
    RHS1  C00000740  0
    RHS1  C00000741  0
    RHS1  C00000742  0
    RHS1  C00000743  0
    RHS1  C00000744  0
    RHS1  C00000745  0
    RHS1  C00000746  0
    RHS1  C00000747  0
    RHS1  C00000748  0
    RHS1  C00000749  0
    RHS1  C00000750  0
    RHS1  C00000751  0
    RHS1  C00000752  0
    RHS1  C00000753  0
    RHS1  C00000754  0
    RHS1  C00000755  0
    RHS1  C00000756  0
    RHS1  C00000757  0
    RHS1  C00000758  0
    RHS1  C00000759  0
    RHS1  C00000760  0
    RHS1  C00000761  0
    RHS1  C00000762  0
    RHS1  C00000763  0
    RHS1  C00000764  0
    RHS1  C00000765  0
    RHS1  C00000766  0
    RHS1  C00000767  0
    RHS1  C00000768  0
    RHS1  C00000769  0
    RHS1  C00000770  0
    RHS1  C00000771  0
    RHS1  C00000772  0
    RHS1  C00000773  0
    RHS1  C00000774  0
    RHS1  C00000775  0
    RHS1  C00000776  0
    RHS1  C00000777  0
    RHS1  C00000778  0
    RHS1  C00000779  0
    RHS1  C00000780  0
    RHS1  C00000781  0
    RHS1  C00000782  0
    RHS1  C00000783  0
    RHS1  C00000784  0
    RHS1  C00000785  0
    RHS1  C00000786  0
    RHS1  C00000787  0
    RHS1  C00000788  0
    RHS1  C00000789  0
    RHS1  C00000790  0
    RHS1  C00000791  0
    RHS1  C00000792  0
    RHS1  C00000793  0
    RHS1  C00000794  0
    RHS1  C00000795  0
    RHS1  C00000796  0
    RHS1  C00000797  0
    RHS1  C00000798  0
    RHS1  C00000799  0
    RHS1  C00000800  0
    RHS1  C00000801  0
    RHS1  C00000802  0
    RHS1  C00000803  0
    RHS1  C00000804  0
    RHS1  C00000805  0
    RHS1  C00000806  0
    RHS1  C00000807  0
    RHS1  C00000808  0
    RHS1  C00000809  0
    RHS1  C00000810  0
    RHS1  C00000811  0
    RHS1  C00000812  0
    RHS1  C00000813  0
    RHS1  C00000814  0
    RHS1  C00000815  0
    RHS1  C00000816  0
    RHS1  C00000817  0
    RHS1  C00000818  0
    RHS1  C00000819  0
    RHS1  C00000820  0
    RHS1  C00000821  0
    RHS1  C00000822  0
    RHS1  C00000823  0
    RHS1  C00000824  0
    RHS1  C00000825  0
    RHS1  C00000826  0
    RHS1  C00000827  0
    RHS1  C00000828  0
    RHS1  C00000829  0
    RHS1  C00000830  0
    RHS1  C00000831  0
    RHS1  C00000832  0
    RHS1  C00000833  0
    RHS1  C00000834  0
    RHS1  C00000835  0
    RHS1  C00000836  0
    RHS1  C00000837  0
    RHS1  C00000838  0
    RHS1  C00000839  0
    RHS1  C00000840  0
    RHS1  C00000841  0
    RHS1  C00000842  0
    RHS1  C00000843  0
    RHS1  C00000844  0
    RHS1  C00000845  0
    RHS1  C00000846  0
    RHS1  C00000847  0
    RHS1  C00000848  0
    RHS1  C00000849  0
    RHS1  C00000850  0
    RHS1  C00000851  0
    RHS1  C00000852  0
    RHS1  C00000853  0
    RHS1  C00000854  0
    RHS1  C00000855  0
    RHS1  C00000856  0
    RHS1  C00000857  0
    RHS1  C00000858  0
    RHS1  C00000859  0
    RHS1  C00000860  0
    RHS1  C00000861  0
    RHS1  C00000862  0
    RHS1  C00000863  0
    RHS1  C00000864  0
    RHS1  C00000865  0
    RHS1  C00000866  0
    RHS1  C00000867  0
    RHS1  C00000868  0
    RHS1  C00000869  0
    RHS1  C00000870  0
    RHS1  C00000871  0
    RHS1  C00000872  0
    RHS1  C00000873  0
    RHS1  C00000874  0
    RHS1  C00000875  0
    RHS1  C00000876  0
    RHS1  C00000877  0
    RHS1  C00000878  0
    RHS1  C00000879  0
    RHS1  C00000880  0
    RHS1  C00000881  0
    RHS1  C00000882  0
    RHS1  C00000883  0
    RHS1  C00000884  0
    RHS1  C00000885  0
    RHS1  C00000886  0
    RHS1  C00000887  0
    RHS1  C00000888  0
    RHS1  C00000889  0
    RHS1  C00000890  0
    RHS1  C00000891  0
    RHS1  C00000892  0
    RHS1  C00000893  0
    RHS1  C00000894  0
    RHS1  C00000895  0
    RHS1  C00000896  0
    RHS1  C00000897  0
    RHS1  C00000898  0
    RHS1  C00000899  0
    RHS1  C00000900  0
    RHS1  C00000901  0
    RHS1  C00000902  0
    RHS1  C00000903  0
    RHS1  C00000904  0
    RHS1  C00000905  0
    RHS1  C00000906  0
    RHS1  C00000907  0
    RHS1  C00000908  0
    RHS1  C00000909  0
    RHS1  C00000910  0
    RHS1  C00000911  0
    RHS1  C00000912  0
    RHS1  C00000913  0
    RHS1  C00000914  0
    RHS1  C00000915  0
    RHS1  C00000916  0
    RHS1  C00000917  0
    RHS1  C00000918  0
    RHS1  C00000919  0
    RHS1  C00000920  0
    RHS1  C00000921  0
    RHS1  C00000922  0
    RHS1  C00000923  0
    RHS1  C00000924  0
    RHS1  C00000925  0
    RHS1  C00000926  0
    RHS1  C00000927  0
    RHS1  C00000928  0
    RHS1  C00000929  0
    RHS1  C00000930  0
    RHS1  C00000931  0
    RHS1  C00000932  0
    RHS1  C00000933  0
    RHS1  C00000934  0
    RHS1  C00000935  0
    RHS1  C00000936  0
    RHS1  C00000937  0
    RHS1  C00000938  0
    RHS1  C00000939  0
    RHS1  C00000940  0
    RHS1  C00000941  0
    RHS1  C00000942  0
    RHS1  C00000943  0
    RHS1  C00000944  0
    RHS1  C00000945  0
    RHS1  C00000946  0
    RHS1  C00000947  0
    RHS1  C00000948  0
    RHS1  C00000949  0
    RHS1  C00000950  0
    RHS1  C00000951  0
    RHS1  C00000952  0
    RHS1  C00000953  0
    RHS1  C00000954  0
    RHS1  C00000955  0
    RHS1  C00000956  0
    RHS1  C00000957  0
    RHS1  C00000958  0
    RHS1  C00000959  0
    RHS1  C00000960  0
    RHS1  C00000961  0
    RHS1  C00000962  0
    RHS1  C00000963  0
    RHS1  C00000964  0
    RHS1  C00000965  0
    RHS1  C00000966  0
    RHS1  C00000967  0
    RHS1  C00000968  0
    RHS1  C00000969  0
    RHS1  C00000970  0
    RHS1  C00000971  0
    RHS1  C00000972  0
    RHS1  C00000973  0
    RHS1  C00000974  0
    RHS1  C00000975  0
    RHS1  C00000976  0
    RHS1  C00000977  0
    RHS1  C00000978  0
    RHS1  C00000979  0
    RHS1  C00000980  0
    RHS1  C00000981  0
    RHS1  C00000982  0
    RHS1  C00000983  0
    RHS1  C00000984  0
    RHS1  C00000985  0
    RHS1  C00000986  0
    RHS1  C00000987  0
    RHS1  C00000988  0
    RHS1  C00000989  0
    RHS1  C00000990  0
    RHS1  C00000991  0
    RHS1  C00000992  0
    RHS1  C00000993  0
    RHS1  C00000994  0
    RHS1  C00000995  0
    RHS1  C00000996  0
    RHS1  C00000997  0
    RHS1  C00000998  0
    RHS1  C00000999  0
    RHS1  C00001000  0
    RHS1  C00001001  0
    RHS1  C00001002  0
    RHS1  C00001003  0
    RHS1  C00001004  0
    RHS1  C00001005  0
    RHS1  C00001006  0
    RHS1  C00001007  0
    RHS1  C00001008  0
    RHS1  C00001009  0
    RHS1  C00001010  0
    RHS1  C00001011  0
    RHS1  C00001012  0
    RHS1  C00001013  0
    RHS1  C00001014  0
    RHS1  C00001015  0
    RHS1  C00001016  0
    RHS1  C00001017  0
    RHS1  C00001018  0
    RHS1  C00001019  0
    RHS1  C00001020  0
    RHS1  C00001021  0
    RHS1  C00001022  0
    RHS1  C00001023  0
    RHS1  C00001024  0
    RHS1  C00001025  0
    RHS1  C00001026  0
    RHS1  C00001027  0
    RHS1  C00001028  0
    RHS1  C00001029  0
    RHS1  C00001030  0
    RHS1  C00001031  0
    RHS1  C00001032  0
    RHS1  C00001033  0
    RHS1  C00001034  0
    RHS1  C00001035  0
    RHS1  C00001036  0
    RHS1  C00001037  0
    RHS1  C00001038  0
    RHS1  C00001039  0
    RHS1  C00001040  0
    RHS1  C00001041  0
    RHS1  C00001042  0
    RHS1  C00001043  0
    RHS1  C00001044  0
    RHS1  C00001045  0
    RHS1  C00001046  0
    RHS1  C00001047  0
    RHS1  C00001048  0
    RHS1  C00001049  0
    RHS1  C00001050  0
    RHS1  C00001051  0
    RHS1  C00001052  0
    RHS1  C00001053  0
    RHS1  C00001054  0
    RHS1  C00001055  0
    RHS1  C00001056  0
    RHS1  C00001057  0
    RHS1  C00001058  0
    RHS1  C00001059  0
    RHS1  C00001060  0
    RHS1  C00001061  0
    RHS1  C00001062  0
    RHS1  C00001063  0
    RHS1  C00001064  0
    RHS1  C00001065  0
    RHS1  C00001066  0
    RHS1  C00001067  0
    RHS1  C00001068  0
    RHS1  C00001069  0
    RHS1  C00001070  0
    RHS1  C00001071  0
    RHS1  C00001072  0
    RHS1  C00001073  0
    RHS1  C00001074  0
    RHS1  C00001075  0
    RHS1  C00001076  0
    RHS1  C00001077  0
    RHS1  C00001078  0
    RHS1  C00001079  0
    RHS1  C00001080  0
    RHS1  C00001081  0
    RHS1  C00001082  0
    RHS1  C00001083  0
    RHS1  C00001084  0
    RHS1  C00001085  0
    RHS1  C00001086  0
    RHS1  C00001087  0
    RHS1  C00001088  0
    RHS1  C00001089  0
    RHS1  C00001090  0
    RHS1  C00001091  0
    RHS1  C00001092  0
    RHS1  C00001093  0
    RHS1  C00001094  0
    RHS1  C00001095  0
    RHS1  C00001096  0
    RHS1  C00001097  0
    RHS1  C00001098  0
    RHS1  C00001099  0
    RHS1  C00001100  0
    RHS1  C00001101  0
    RHS1  C00001102  0
    RHS1  C00001103  0
    RHS1  C00001104  0
    RHS1  C00001105  0
    RHS1  C00001106  0
    RHS1  C00001107  0
    RHS1  C00001108  0
    RHS1  C00001109  0
    RHS1  C00001110  0
    RHS1  C00001111  0
    RHS1  C00001112  0
    RHS1  C00001113  0
    RHS1  C00001114  0
    RHS1  C00001115  0
    RHS1  C00001116  0
    RHS1  C00001117  0
    RHS1  C00001118  0
    RHS1  C00001119  0
    RHS1  C00001120  0
    RHS1  C00001121  0
    RHS1  C00001122  0
    RHS1  C00001123  0
    RHS1  C00001124  0
    RHS1  C00001125  0
    RHS1  C00001126  0
    RHS1  C00001127  0
    RHS1  C00001128  0
    RHS1  C00001129  0
    RHS1  C00001130  0
    RHS1  C00001131  0
    RHS1  C00001132  0
    RHS1  C00001133  0
    RHS1  C00001134  0
    RHS1  C00001135  0
    RHS1  C00001136  0
    RHS1  C00001137  0
    RHS1  C00001138  0
    RHS1  C00001139  0
    RHS1  C00001140  0
    RHS1  C00001141  0
    RHS1  C00001142  0
    RHS1  C00001143  0
    RHS1  C00001144  0
    RHS1  C00001145  0
    RHS1  C00001146  0
    RHS1  C00001147  0
    RHS1  C00001148  0
    RHS1  C00001149  0
    RHS1  C00001150  0
    RHS1  C00001151  0
    RHS1  C00001152  0
    RHS1  C00001153  0
    RHS1  C00001154  0
    RHS1  C00001155  0
    RHS1  C00001156  0
    RHS1  C00001157  0
    RHS1  C00001158  0
    RHS1  C00001159  0
    RHS1  C00001160  0
    RHS1  C00001161  0
    RHS1  C00001162  0
    RHS1  C00001163  0
    RHS1  C00001164  0
    RHS1  C00001165  0
    RHS1  C00001166  0
    RHS1  C00001167  0
    RHS1  C00001168  0
    RHS1  C00001169  0
    RHS1  C00001170  0
    RHS1  C00001171  0
    RHS1  C00001172  0
    RHS1  C00001173  0
    RHS1  C00001174  0
    RHS1  C00001175  0
    RHS1  C00001176  0
    RHS1  C00001177  0
    RHS1  C00001178  0
    RHS1  C00001179  0
    RHS1  C00001180  0
    RHS1  C00001181  0
    RHS1  C00001182  0
    RHS1  C00001183  0
    RHS1  C00001184  0
    RHS1  C00001185  0
    RHS1  C00001186  0
    RHS1  C00001187  0
    RHS1  C00001188  0
    RHS1  C00001189  0
    RHS1  C00001190  0
    RHS1  C00001191  0
    RHS1  C00001192  0
    RHS1  C00001193  0
    RHS1  C00001194  0
    RHS1  C00001195  0
    RHS1  C00001196  0
    RHS1  C00001197  0
    RHS1  C00001198  0
    RHS1  C00001199  0
    RHS1  C00001200  0
    RHS1  C00001201  0
    RHS1  C00001202  0
    RHS1  C00001203  0
    RHS1  C00001204  0
    RHS1  C00001205  0
    RHS1  C00001206  0
    RHS1  C00001207  0
    RHS1  C00001208  0
    RHS1  C00001209  0
    RHS1  C00001210  0
    RHS1  C00001211  0
    RHS1  C00001212  0
    RHS1  C00001213  0
    RHS1  C00001214  0
    RHS1  C00001215  0
    RHS1  C00001216  0
    RHS1  C00001217  0
    RHS1  C00001218  0
    RHS1  C00001219  0
    RHS1  C00001220  0
    RHS1  C00001221  0
    RHS1  C00001222  0
    RHS1  C00001223  0
    RHS1  C00001224  0
    RHS1  C00001225  0
    RHS1  C00001226  0
    RHS1  C00001227  0
    RHS1  C00001228  0
    RHS1  C00001229  0
    RHS1  C00001230  0
    RHS1  C00001231  0
    RHS1  C00001232  0
    RHS1  C00001233  0
    RHS1  C00001234  0
    RHS1  C00001235  0
    RHS1  C00001236  0
    RHS1  C00001237  0
    RHS1  C00001238  0
    RHS1  C00001239  0
    RHS1  C00001240  0
    RHS1  C00001241  0
    RHS1  C00001242  0
    RHS1  C00001243  0
    RHS1  C00001244  0
    RHS1  C00001245  0
    RHS1  C00001246  0
    RHS1  C00001247  0
    RHS1  C00001248  0
    RHS1  C00001249  0
    RHS1  C00001250  0
    RHS1  C00001251  0
    RHS1  C00001252  0
    RHS1  C00001253  0
    RHS1  C00001254  0
    RHS1  C00001255  0
    RHS1  C00001256  0
    RHS1  C00001257  0
    RHS1  C00001258  0
    RHS1  C00001259  0
    RHS1  C00001260  0
    RHS1  C00001261  0
    RHS1  C00001262  0
    RHS1  C00001263  0
    RHS1  C00001264  0
    RHS1  C00001265  0
    RHS1  C00001266  0
    RHS1  C00001267  0
    RHS1  C00001268  0
    RHS1  C00001269  0
    RHS1  C00001270  0
    RHS1  C00001271  0
    RHS1  C00001272  0
    RHS1  C00001273  0
    RHS1  C00001274  0
    RHS1  C00001275  0
    RHS1  C00001276  0
    RHS1  C00001277  0
    RHS1  C00001278  0
    RHS1  C00001279  0
    RHS1  C00001280  0
    RHS1  C00001281  0
    RHS1  C00001282  0
    RHS1  C00001283  0
    RHS1  C00001284  0
    RHS1  C00001285  0
    RHS1  C00001286  0
    RHS1  C00001287  0
    RHS1  C00001288  0
    RHS1  C00001289  0
    RHS1  C00001290  0
    RHS1  C00001291  0
    RHS1  C00001292  0
    RHS1  C00001293  0
    RHS1  C00001294  0
    RHS1  C00001295  0
    RHS1  C00001296  0
    RHS1  C00001297  0
    RHS1  C00001298  0
    RHS1  C00001299  0
    RHS1  C00001300  0
    RHS1  C00001301  0
    RHS1  C00001302  0
    RHS1  C00001303  0
    RHS1  C00001304  0
    RHS1  C00001305  0
    RHS1  C00001306  0
    RHS1  C00001307  0
    RHS1  C00001308  0
    RHS1  C00001309  0
    RHS1  C00001310  0
    RHS1  C00001311  0
    RHS1  C00001312  0
    RHS1  C00001313  0
    RHS1  C00001314  0
    RHS1  C00001315  0
    RHS1  C00001316  0
    RHS1  C00001317  0
    RHS1  C00001318  0
    RHS1  C00001319  0
    RHS1  C00001320  0
    RHS1  C00001321  0
    RHS1  C00001322  0
    RHS1  C00001323  0
    RHS1  C00001324  0
    RHS1  C00001325  0
    RHS1  C00001326  0
    RHS1  C00001327  0
    RHS1  C00001328  0
    RHS1  C00001329  0
    RHS1  C00001330  0
    RHS1  C00001331  0
    RHS1  C00001332  0
    RHS1  C00001333  0
    RHS1  C00001334  0
    RHS1  C00001335  0
    RHS1  C00001336  0
    RHS1  C00001337  0
    RHS1  C00001338  0
    RHS1  C00001339  0
    RHS1  C00001340  0
    RHS1  C00001341  0
    RHS1  C00001342  0
    RHS1  C00001343  0
    RHS1  C00001344  0
    RHS1  C00001345  0
    RHS1  C00001346  0
    RHS1  C00001347  0
    RHS1  C00001348  0
    RHS1  C00001349  0
    RHS1  C00001350  0
    RHS1  C00001351  0
    RHS1  C00001352  0
    RHS1  C00001353  0
    RHS1  C00001354  0
    RHS1  C00001355  0
    RHS1  C00001356  0
    RHS1  C00001357  0
    RHS1  C00001358  0
    RHS1  C00001359  0
    RHS1  C00001360  0
    RHS1  C00001361  0
    RHS1  C00001362  0
    RHS1  C00001363  0
    RHS1  C00001364  0
    RHS1  C00001365  0
    RHS1  C00001366  0
    RHS1  C00001367  0
    RHS1  C00001368  0
    RHS1  C00001369  0
    RHS1  C00001370  0
    RHS1  C00001371  0
    RHS1  C00001372  0
    RHS1  C00001373  0
    RHS1  C00001374  0
    RHS1  C00001375  0
    RHS1  C00001376  0
    RHS1  C00001377  0
    RHS1  C00001378  0
    RHS1  C00001379  0
    RHS1  C00001380  0
    RHS1  C00001381  0
    RHS1  C00001382  0
    RHS1  C00001383  0
    RHS1  C00001384  0
    RHS1  C00001385  0
    RHS1  C00001386  0
    RHS1  C00001387  0
    RHS1  C00001388  0
    RHS1  C00001389  0
    RHS1  C00001390  0
    RHS1  C00001391  0
    RHS1  C00001392  0
    RHS1  C00001393  0
    RHS1  C00001394  0
    RHS1  C00001395  0
    RHS1  C00001396  0
    RHS1  C00001397  0
    RHS1  C00001398  0
    RHS1  C00001399  0
    RHS1  C00001400  0
    RHS1  C00001401  0
    RHS1  C00001402  0
    RHS1  C00001403  0
    RHS1  C00001404  0
    RHS1  C00001405  0
    RHS1  C00001406  0
    RHS1  C00001407  0
    RHS1  C00001408  0
    RHS1  C00001409  0
    RHS1  C00001410  0
    RHS1  C00001411  0
    RHS1  C00001412  0
    RHS1  C00001413  0
    RHS1  C00001414  0
    RHS1  C00001415  0
    RHS1  C00001416  0
    RHS1  C00001417  0
    RHS1  C00001418  0
    RHS1  C00001419  0
    RHS1  C00001420  0
    RHS1  C00001421  0
    RHS1  C00001422  0
    RHS1  C00001423  0
    RHS1  C00001424  0
    RHS1  C00001425  0
    RHS1  C00001426  0
    RHS1  C00001427  0
    RHS1  C00001428  0
    RHS1  C00001429  0
    RHS1  C00001430  0
    RHS1  C00001431  0
    RHS1  C00001432  0
    RHS1  C00001433  0
    RHS1  C00001434  0
    RHS1  C00001435  0
    RHS1  C00001436  0
    RHS1  C00001437  0
    RHS1  C00001438  0
    RHS1  C00001439  0
    RHS1  C00001440  0
    RHS1  C00001441  0
    RHS1  C00001442  0
    RHS1  C00001443  0
    RHS1  C00001444  0
    RHS1  C00001445  0
    RHS1  C00001446  0
    RHS1  C00001447  0
    RHS1  C00001448  0
    RHS1  C00001449  0
    RHS1  C00001450  0
    RHS1  C00001451  0
    RHS1  C00001452  0
    RHS1  C00001453  0
    RHS1  C00001454  0
    RHS1  C00001455  0
    RHS1  C00001456  0
    RHS1  C00001457  0
    RHS1  C00001458  0
    RHS1  C00001459  0
    RHS1  C00001460  0
    RHS1  C00001461  0
    RHS1  C00001462  0
    RHS1  C00001463  0
    RHS1  C00001464  0
    RHS1  C00001465  0
    RHS1  C00001466  0
    RHS1  C00001467  0
    RHS1  C00001468  0
    RHS1  C00001469  0
    RHS1  C00001470  0
    RHS1  C00001471  0
    RHS1  C00001472  0
    RHS1  C00001473  0
    RHS1  C00001474  0
    RHS1  C00001475  0
    RHS1  C00001476  0
    RHS1  C00001477  0
    RHS1  C00001478  0
    RHS1  C00001479  0
    RHS1  C00001480  0
    RHS1  C00001481  0
    RHS1  C00001482  0
    RHS1  C00001483  0
    RHS1  C00001484  0
    RHS1  C00001485  0
    RHS1  C00001486  0
    RHS1  C00001487  0
    RHS1  C00001488  0
    RHS1  C00001489  0
    RHS1  C00001490  0
    RHS1  C00001491  0
    RHS1  C00001492  0
    RHS1  C00001493  0
    RHS1  C00001494  0
    RHS1  C00001495  0
    RHS1  C00001496  0
    RHS1  C00001497  0
    RHS1  C00001498  0
    RHS1  C00001499  0
    RHS1  C00001500  0
    RHS1  C00001501  0
    RHS1  C00001502  0
    RHS1  C00001503  0
    RHS1  C00001504  0
    RHS1  C00001505  0
    RHS1  C00001506  0
    RHS1  C00001507  0
    RHS1  C00001508  0
    RHS1  C00001509  0
    RHS1  C00001510  0
    RHS1  C00001511  0
    RHS1  C00001512  0
    RHS1  C00001513  0
    RHS1  C00001514  0
    RHS1  C00001515  0
    RHS1  C00001516  0
    RHS1  C00001517  0
    RHS1  C00001518  0
    RHS1  C00001519  0
    RHS1  C00001520  0
    RHS1  C00001521  0
    RHS1  C00001522  0
    RHS1  C00001523  0
    RHS1  C00001524  0
    RHS1  C00001525  0
    RHS1  C00001526  0
    RHS1  C00001527  0
    RHS1  C00001528  0
    RHS1  C00001529  0
    RHS1  C00001530  0
    RHS1  C00001531  0
    RHS1  C00001532  0
    RHS1  C00001533  0
    RHS1  C00001534  0
    RHS1  C00001535  0
    RHS1  C00001536  0
    RHS1  C00001537  0
    RHS1  C00001538  0
    RHS1  C00001539  0
    RHS1  C00001540  0
    RHS1  C00001541  0
    RHS1  C00001542  0
    RHS1  C00001543  0
    RHS1  C00001544  0
    RHS1  C00001545  0
    RHS1  C00001546  0
    RHS1  C00001547  0
    RHS1  C00001548  0
    RHS1  C00001549  0
    RHS1  C00001550  0
    RHS1  C00001551  0
    RHS1  C00001552  0
    RHS1  C00001553  0
    RHS1  C00001554  0
    RHS1  C00001555  0
    RHS1  C00001556  0
    RHS1  C00001557  0
    RHS1  C00001558  0
    RHS1  C00001559  0
    RHS1  C00001560  0
    RHS1  C00001561  0
    RHS1  C00001562  0
    RHS1  C00001563  0
    RHS1  C00001564  0
    RHS1  C00001565  0
    RHS1  C00001566  0
    RHS1  C00001567  0
    RHS1  C00001568  0
    RHS1  C00001569  0
    RHS1  C00001570  0
    RHS1  C00001571  0
    RHS1  C00001572  0
    RHS1  C00001573  0
    RHS1  C00001574  0
    RHS1  C00001575  0
    RHS1  C00001576  0
    RHS1  C00001577  0
    RHS1  C00001578  0
    RHS1  C00001579  0
    RHS1  C00001580  0
    RHS1  C00001581  0
    RHS1  C00001582  0
    RHS1  C00001583  0
    RHS1  C00001584  0
    RHS1  C00001585  0
    RHS1  C00001586  0
    RHS1  C00001587  0
    RHS1  C00001588  0
    RHS1  C00001589  0
    RHS1  C00001590  0
    RHS1  C00001591  0
    RHS1  C00001592  0
    RHS1  C00001593  0
    RHS1  C00001594  0
    RHS1  C00001595  0
    RHS1  C00001596  0
    RHS1  C00001597  0
    RHS1  C00001598  0
    RHS1  C00001599  0
    RHS1  C00001600  0
    RHS1  C00001601  0
    RHS1  C00001602  0
    RHS1  C00001603  0
    RHS1  C00001604  0
    RHS1  C00001605  0
    RHS1  C00001606  0
    RHS1  C00001607  0
    RHS1  C00001608  0
    RHS1  C00001609  0
    RHS1  C00001610  0
    RHS1  C00001611  0
    RHS1  C00001612  0
    RHS1  C00001613  0
    RHS1  C00001614  0
    RHS1  C00001615  0
    RHS1  C00001616  0
    RHS1  C00001617  0
    RHS1  C00001618  0
    RHS1  C00001619  0
    RHS1  C00001620  0
    RHS1  C00001621  0
    RHS1  C00001622  0
    RHS1  C00001623  0
    RHS1  C00001624  0
    RHS1  C00001625  0
    RHS1  C00001626  0
    RHS1  C00001627  0
    RHS1  C00001628  0
    RHS1  C00001629  0
    RHS1  C00001630  0
    RHS1  C00001631  0
    RHS1  C00001632  0
    RHS1  C00001633  0
    RHS1  C00001634  0
    RHS1  C00001635  0
    RHS1  C00001636  0
    RHS1  C00001637  0
    RHS1  C00001638  0
    RHS1  C00001639  0
    RHS1  C00001640  0
    RHS1  C00001641  0
    RHS1  C00001642  0
    RHS1  C00001643  0
    RHS1  C00001644  0
    RHS1  C00001645  0
    RHS1  C00001646  0
    RHS1  C00001647  0
    RHS1  C00001648  0
    RHS1  C00001649  0
RANGES
    RNG1  C00000001  0
    RNG1  C00000002  0
    RNG1  C00000003  0
    RNG1  C00000004  0
    RNG1  C00000005  0
    RNG1  C00000006  0
    RNG1  C00000007  0
    RNG1  C00000008  0
    RNG1  C00000009  0
    RNG1  C00000010  0
    RNG1  C00000011  0
    RNG1  C00000012  0
    RNG1  C00000013  0
    RNG1  C00000014  0
    RNG1  C00000015  0
    RNG1  C00000016  0
    RNG1  C00000017  0
    RNG1  C00000018  0
    RNG1  C00000019  0
    RNG1  C00000020  0
    RNG1  C00000021  0
    RNG1  C00000022  0
    RNG1  C00000023  0
    RNG1  C00000024  0
    RNG1  C00000025  0
    RNG1  C00000026  0
    RNG1  C00000027  0
    RNG1  C00000028  0
    RNG1  C00000029  0
    RNG1  C00000030  0
    RNG1  C00000031  0
    RNG1  C00000032  0
    RNG1  C00000033  0
    RNG1  C00000034  0
    RNG1  C00000035  0
    RNG1  C00000036  0
    RNG1  C00000037  0
    RNG1  C00000038  0
    RNG1  C00000039  0
    RNG1  C00000040  0
    RNG1  C00000041  0
    RNG1  C00000042  0
    RNG1  C00000043  0
    RNG1  C00000044  0
    RNG1  C00000045  0
    RNG1  C00000046  0
    RNG1  C00000047  0
    RNG1  C00000048  0
    RNG1  C00000049  0
    RNG1  C00000050  0
    RNG1  C00000051  0
    RNG1  C00000052  0
    RNG1  C00000053  0
    RNG1  C00000054  0
    RNG1  C00000055  0
    RNG1  C00000056  0
    RNG1  C00000057  0
    RNG1  C00000058  0
    RNG1  C00000059  0
    RNG1  C00000060  0
    RNG1  C00000061  0
    RNG1  C00000062  0
    RNG1  C00000063  0
    RNG1  C00000064  0
    RNG1  C00000065  0
    RNG1  C00000066  0
    RNG1  C00000067  0
    RNG1  C00000068  0
    RNG1  C00000069  0
    RNG1  C00000070  0
    RNG1  C00000071  0
    RNG1  C00000072  0
    RNG1  C00000073  0
    RNG1  C00000074  0
    RNG1  C00000075  0
    RNG1  C00000076  0
    RNG1  C00000077  0
    RNG1  C00000078  0
    RNG1  C00000079  0
    RNG1  C00000080  0
    RNG1  C00000081  0
    RNG1  C00000082  0
    RNG1  C00000083  0
    RNG1  C00000084  0
    RNG1  C00000085  0
    RNG1  C00000086  0
    RNG1  C00000087  0
    RNG1  C00000088  0
    RNG1  C00000089  0
    RNG1  C00000090  0
    RNG1  C00000091  0
    RNG1  C00000092  0
    RNG1  C00000093  0
    RNG1  C00000094  0
    RNG1  C00000095  0
    RNG1  C00000096  0
    RNG1  C00000097  0
    RNG1  C00000098  0
    RNG1  C00000099  0
    RNG1  C00000100  0
    RNG1  C00000101  0
    RNG1  C00000102  0
    RNG1  C00000103  0
    RNG1  C00000104  0
    RNG1  C00000105  0
    RNG1  C00000106  0
    RNG1  C00000107  0
    RNG1  C00000108  0
    RNG1  C00000109  0
    RNG1  C00000110  0
    RNG1  C00000111  0
    RNG1  C00000112  0
    RNG1  C00000113  0
    RNG1  C00000114  0
    RNG1  C00000115  0
    RNG1  C00000116  0
    RNG1  C00000117  0
    RNG1  C00000118  0
    RNG1  C00000119  0
    RNG1  C00000120  0
    RNG1  C00000121  0
    RNG1  C00000122  0
    RNG1  C00000123  0
    RNG1  C00000124  0
    RNG1  C00000125  0
    RNG1  C00000126  0
    RNG1  C00000127  0
    RNG1  C00000128  0
    RNG1  C00000129  0
    RNG1  C00000130  0
    RNG1  C00000131  0
    RNG1  C00000132  0
    RNG1  C00000133  0
    RNG1  C00000134  0
    RNG1  C00000135  0
    RNG1  C00000136  0
    RNG1  C00000137  0
    RNG1  C00000138  0
    RNG1  C00000139  0
    RNG1  C00000140  0
    RNG1  C00000141  0
    RNG1  C00000142  0
    RNG1  C00000143  0
    RNG1  C00000144  0
    RNG1  C00000145  0
    RNG1  C00000146  0
    RNG1  C00000147  0
    RNG1  C00000148  0
    RNG1  C00000149  0
    RNG1  C00000150  0
    RNG1  C00000151  0
    RNG1  C00000152  0
    RNG1  C00000153  0
    RNG1  C00000154  0
    RNG1  C00000155  0
    RNG1  C00000156  0
    RNG1  C00000157  0
    RNG1  C00000158  0
    RNG1  C00000159  0
    RNG1  C00000160  0
    RNG1  C00000161  0
    RNG1  C00000162  0
    RNG1  C00000163  0
    RNG1  C00000164  0
    RNG1  C00000165  0
    RNG1  C00000166  0
    RNG1  C00000167  0
    RNG1  C00000168  0
    RNG1  C00000169  0
    RNG1  C00000170  0
    RNG1  C00000171  0
    RNG1  C00000172  0
    RNG1  C00000173  0
    RNG1  C00000174  0
    RNG1  C00000175  0
    RNG1  C00000176  0
    RNG1  C00000177  0
    RNG1  C00000178  0
    RNG1  C00000179  0
    RNG1  C00000180  0
    RNG1  C00000181  0
    RNG1  C00000182  0
    RNG1  C00000183  0
    RNG1  C00000184  0
    RNG1  C00000185  0
    RNG1  C00000186  0
    RNG1  C00000187  0
    RNG1  C00000188  0
    RNG1  C00000189  0
    RNG1  C00000190  0
    RNG1  C00000191  0
    RNG1  C00000192  0
    RNG1  C00000193  0
    RNG1  C00000194  0
    RNG1  C00000195  0
    RNG1  C00000196  0
    RNG1  C00000197  0
    RNG1  C00000198  0
    RNG1  C00000199  0
    RNG1  C00000200  0
    RNG1  C00000201  0
    RNG1  C00000202  0
    RNG1  C00000203  0
    RNG1  C00000204  0
    RNG1  C00000205  0
    RNG1  C00000206  0
    RNG1  C00000207  0
    RNG1  C00000208  0
    RNG1  C00000209  0
    RNG1  C00000210  0
    RNG1  C00000211  0
    RNG1  C00000212  0
    RNG1  C00000213  0
    RNG1  C00000214  0
    RNG1  C00000215  0
    RNG1  C00000216  0
    RNG1  C00000217  0
    RNG1  C00000218  0
    RNG1  C00000219  0
    RNG1  C00000220  0
    RNG1  C00000221  0
    RNG1  C00000222  0
    RNG1  C00000223  0
    RNG1  C00000224  0
    RNG1  C00000225  0
    RNG1  C00000226  0
    RNG1  C00000227  0
    RNG1  C00000228  0
    RNG1  C00000229  0
    RNG1  C00000230  0
    RNG1  C00000231  0
    RNG1  C00000232  0
    RNG1  C00000233  0
    RNG1  C00000234  0
    RNG1  C00000235  0
    RNG1  C00000236  0
    RNG1  C00000237  0
    RNG1  C00000238  0
    RNG1  C00000239  0
    RNG1  C00000240  0
    RNG1  C00000241  0
    RNG1  C00000242  0
    RNG1  C00000243  0
    RNG1  C00000244  0
    RNG1  C00000245  0
    RNG1  C00000246  0
    RNG1  C00000247  0
    RNG1  C00000248  0
    RNG1  C00000249  0
    RNG1  C00000250  0
    RNG1  C00000251  0
    RNG1  C00000252  0
    RNG1  C00000253  0
    RNG1  C00000254  0
    RNG1  C00000255  0
    RNG1  C00000256  0
    RNG1  C00000257  0
    RNG1  C00000258  0
    RNG1  C00000259  0
    RNG1  C00000260  0
    RNG1  C00000261  0
    RNG1  C00000262  0
    RNG1  C00000263  0
    RNG1  C00000264  0
    RNG1  C00000265  0
    RNG1  C00000266  0
    RNG1  C00000267  0
    RNG1  C00000268  0
    RNG1  C00000269  0
    RNG1  C00000270  0
    RNG1  C00000271  0
    RNG1  C00000272  0
    RNG1  C00000273  0
    RNG1  C00000274  0
    RNG1  C00000275  0
    RNG1  C00000276  0
    RNG1  C00000277  0
    RNG1  C00000278  0
    RNG1  C00000279  0
    RNG1  C00000280  0
    RNG1  C00000281  0
    RNG1  C00000282  0
    RNG1  C00000283  0
    RNG1  C00000284  0
    RNG1  C00000285  0
    RNG1  C00000286  0
    RNG1  C00000287  0
    RNG1  C00000288  0
    RNG1  C00000289  0
    RNG1  C00000290  0
    RNG1  C00000291  0
    RNG1  C00000292  0
    RNG1  C00000293  0
    RNG1  C00000294  0
    RNG1  C00000295  0
    RNG1  C00000296  0
    RNG1  C00000297  0
    RNG1  C00000298  0
    RNG1  C00000299  0
    RNG1  C00000300  0
    RNG1  C00000301  0
    RNG1  C00000302  0
    RNG1  C00000303  0
    RNG1  C00000304  0
    RNG1  C00000305  0
    RNG1  C00000306  0
    RNG1  C00000307  0
    RNG1  C00000308  0
    RNG1  C00000309  0
    RNG1  C00000310  0
    RNG1  C00000311  0
    RNG1  C00000312  0
    RNG1  C00000313  0
    RNG1  C00000314  0
    RNG1  C00000315  0
    RNG1  C00000316  0
    RNG1  C00000317  0
    RNG1  C00000318  0
    RNG1  C00000319  0
    RNG1  C00000320  0
    RNG1  C00000321  0
    RNG1  C00000322  0
    RNG1  C00000323  0
    RNG1  C00000324  0
    RNG1  C00000325  0
    RNG1  C00000326  0
    RNG1  C00000327  0
    RNG1  C00000328  0
    RNG1  C00000329  0
    RNG1  C00000330  0
    RNG1  C00000331  0
    RNG1  C00000332  0
    RNG1  C00000333  0
    RNG1  C00000334  0
    RNG1  C00000335  0
    RNG1  C00000336  0
    RNG1  C00000337  0
    RNG1  C00000338  0
    RNG1  C00000339  0
    RNG1  C00000340  0
    RNG1  C00000341  0
    RNG1  C00000342  0
    RNG1  C00000343  0
    RNG1  C00000344  0
    RNG1  C00000345  0
    RNG1  C00000346  0
    RNG1  C00000347  0
    RNG1  C00000348  0
    RNG1  C00000349  0
    RNG1  C00000350  0
    RNG1  C00000351  0
    RNG1  C00000352  0
    RNG1  C00000353  0
    RNG1  C00000354  0
    RNG1  C00000355  0
    RNG1  C00000356  0
    RNG1  C00000357  0
    RNG1  C00000358  0
    RNG1  C00000359  0
    RNG1  C00000360  0
    RNG1  C00000361  0
    RNG1  C00000362  0
    RNG1  C00000363  0
    RNG1  C00000364  0
    RNG1  C00000365  0
    RNG1  C00000366  0
    RNG1  C00000367  0
    RNG1  C00000368  0
    RNG1  C00000369  0
    RNG1  C00000370  0
    RNG1  C00000371  0
    RNG1  C00000372  0
    RNG1  C00000373  0
    RNG1  C00000374  0
    RNG1  C00000375  0
    RNG1  C00000376  0
    RNG1  C00000377  0
    RNG1  C00000378  0
    RNG1  C00000379  0
    RNG1  C00000380  0
    RNG1  C00000381  0
    RNG1  C00000382  0
    RNG1  C00000383  0
    RNG1  C00000384  0
    RNG1  C00000385  0
    RNG1  C00000386  0
    RNG1  C00000387  0
    RNG1  C00000388  0
    RNG1  C00000389  0
    RNG1  C00000390  0
    RNG1  C00000391  0
    RNG1  C00000392  0
    RNG1  C00000393  0
    RNG1  C00000394  0
    RNG1  C00000395  0
    RNG1  C00000396  0
    RNG1  C00000397  0
    RNG1  C00000398  0
    RNG1  C00000399  0
    RNG1  C00000400  0
    RNG1  C00000401  0
    RNG1  C00000402  0
    RNG1  C00000403  0
    RNG1  C00000404  0
    RNG1  C00000405  0
    RNG1  C00000406  0
    RNG1  C00000407  0
    RNG1  C00000408  0
    RNG1  C00000409  0
    RNG1  C00000410  0
    RNG1  C00000411  0
    RNG1  C00000412  0
    RNG1  C00000413  0
    RNG1  C00000414  0
    RNG1  C00000415  0
    RNG1  C00000416  0
    RNG1  C00000417  0
    RNG1  C00000418  0
    RNG1  C00000419  0
    RNG1  C00000420  0
    RNG1  C00000421  0
    RNG1  C00000422  0
    RNG1  C00000423  0
    RNG1  C00000424  0
    RNG1  C00000425  0
    RNG1  C00000426  0
    RNG1  C00000427  0
    RNG1  C00000428  0
    RNG1  C00000429  0
    RNG1  C00000430  0
    RNG1  C00000431  0
    RNG1  C00000432  0
    RNG1  C00000433  0
    RNG1  C00000434  0
    RNG1  C00000435  0
    RNG1  C00000436  0
    RNG1  C00000437  0
    RNG1  C00000438  0
    RNG1  C00000439  0
    RNG1  C00000440  0
    RNG1  C00000441  0
    RNG1  C00000442  0
    RNG1  C00000443  0
    RNG1  C00000444  0
    RNG1  C00000445  0
    RNG1  C00000446  0
    RNG1  C00000447  0
    RNG1  C00000448  0
    RNG1  C00000449  0
    RNG1  C00000450  0
    RNG1  C00000451  0
    RNG1  C00000452  0
    RNG1  C00000453  0
    RNG1  C00000454  0
    RNG1  C00000455  0
    RNG1  C00000456  0
    RNG1  C00000457  0
    RNG1  C00000458  0
    RNG1  C00000459  0
    RNG1  C00000460  0
    RNG1  C00000461  0
    RNG1  C00000462  0
    RNG1  C00000463  0
    RNG1  C00000464  0
    RNG1  C00000465  0
    RNG1  C00000466  0
    RNG1  C00000467  0
    RNG1  C00000468  0
    RNG1  C00000469  0
    RNG1  C00000470  0
    RNG1  C00000471  0
    RNG1  C00000472  0
    RNG1  C00000473  0
    RNG1  C00000474  0
    RNG1  C00000475  0
    RNG1  C00000476  0
    RNG1  C00000477  0
    RNG1  C00000478  0
    RNG1  C00000479  0
    RNG1  C00000480  0
    RNG1  C00000481  0
    RNG1  C00000482  0
    RNG1  C00000483  0
    RNG1  C00000484  0
    RNG1  C00000485  0
    RNG1  C00000486  0
    RNG1  C00000487  0
    RNG1  C00000488  0
    RNG1  C00000489  0
    RNG1  C00000490  0
    RNG1  C00000491  0
    RNG1  C00000492  0
    RNG1  C00000493  0
    RNG1  C00000494  0
    RNG1  C00000495  0
    RNG1  C00000496  0
    RNG1  C00000497  0
    RNG1  C00000498  0
    RNG1  C00000499  0
    RNG1  C00000500  0
    RNG1  C00000501  0
    RNG1  C00000502  0
    RNG1  C00000503  0
    RNG1  C00000504  0
    RNG1  C00000505  0
    RNG1  C00000506  0
    RNG1  C00000507  0
    RNG1  C00000508  0
    RNG1  C00000509  0
    RNG1  C00000510  0
    RNG1  C00000511  0
    RNG1  C00000512  0
    RNG1  C00000513  0
    RNG1  C00000514  0
    RNG1  C00000515  0
    RNG1  C00000516  0
    RNG1  C00000517  0
    RNG1  C00000518  0
    RNG1  C00000519  0
    RNG1  C00000520  0
    RNG1  C00000521  0
    RNG1  C00000522  0
    RNG1  C00000523  0
    RNG1  C00000524  0
    RNG1  C00000525  0
    RNG1  C00000526  0
    RNG1  C00000527  0
    RNG1  C00000528  0
    RNG1  C00000529  0
    RNG1  C00000530  0
    RNG1  C00000531  0
    RNG1  C00000532  0
    RNG1  C00000533  0
    RNG1  C00000534  0
    RNG1  C00000535  0
    RNG1  C00000536  0
    RNG1  C00000537  0
    RNG1  C00000538  0
    RNG1  C00000539  0
    RNG1  C00000540  0
    RNG1  C00000541  0
    RNG1  C00000542  0
    RNG1  C00000543  0
    RNG1  C00000544  0
    RNG1  C00000545  0
    RNG1  C00000546  0
    RNG1  C00000547  0
    RNG1  C00000548  0
    RNG1  C00000549  0
    RNG1  C00000550  0
    RNG1  C00000551  0
    RNG1  C00000552  0
    RNG1  C00000553  0
    RNG1  C00000554  0
    RNG1  C00000555  0
    RNG1  C00000556  0
    RNG1  C00000557  0
    RNG1  C00000558  0
    RNG1  C00000559  0
    RNG1  C00000560  0
    RNG1  C00000561  0
    RNG1  C00000562  0
    RNG1  C00000563  0
    RNG1  C00000564  0
    RNG1  C00000565  0
    RNG1  C00000566  0
    RNG1  C00000567  0
    RNG1  C00000568  0
    RNG1  C00000569  0
    RNG1  C00000570  0
    RNG1  C00000571  0
    RNG1  C00000572  0
    RNG1  C00000573  0
    RNG1  C00000574  0
    RNG1  C00000575  0
    RNG1  C00000576  0
    RNG1  C00000577  0
    RNG1  C00000578  0
    RNG1  C00000579  0
    RNG1  C00000580  0
    RNG1  C00000581  0
    RNG1  C00000582  0
    RNG1  C00000583  0
    RNG1  C00000584  0
    RNG1  C00000585  0
    RNG1  C00000586  0
    RNG1  C00000587  0
    RNG1  C00000588  0
    RNG1  C00000589  0
    RNG1  C00000590  0
    RNG1  C00000591  0
    RNG1  C00000592  0
    RNG1  C00000593  0
    RNG1  C00000594  0
    RNG1  C00000595  0
    RNG1  C00000596  0
    RNG1  C00000597  0
    RNG1  C00000598  0
    RNG1  C00000599  0
    RNG1  C00000600  0
    RNG1  C00000601  0
    RNG1  C00000602  0
    RNG1  C00000603  0
    RNG1  C00000604  0
    RNG1  C00000605  0
    RNG1  C00000606  0
    RNG1  C00000607  0
    RNG1  C00000608  0
    RNG1  C00000609  0
    RNG1  C00000610  0
    RNG1  C00000611  0
    RNG1  C00000612  0
    RNG1  C00000613  0
    RNG1  C00000614  0
    RNG1  C00000615  0
    RNG1  C00000616  0
    RNG1  C00000617  0
    RNG1  C00000618  0
    RNG1  C00000619  0
    RNG1  C00000620  0
    RNG1  C00000621  0
    RNG1  C00000622  0
    RNG1  C00000623  0
    RNG1  C00000624  0
    RNG1  C00000625  0
    RNG1  C00000626  0
    RNG1  C00000627  0
    RNG1  C00000628  0
    RNG1  C00000629  0
    RNG1  C00000630  0
    RNG1  C00000631  0
    RNG1  C00000632  0
    RNG1  C00000633  0
    RNG1  C00000634  0
    RNG1  C00000635  0
    RNG1  C00000636  0
    RNG1  C00000637  0
    RNG1  C00000638  0
    RNG1  C00000639  0
    RNG1  C00000640  0
    RNG1  C00000641  0
    RNG1  C00000642  0
    RNG1  C00000643  0
    RNG1  C00000644  0
    RNG1  C00000645  0
    RNG1  C00000646  0
    RNG1  C00000647  0
    RNG1  C00000648  0
    RNG1  C00000649  0
    RNG1  C00000650  0
    RNG1  C00000651  0
    RNG1  C00000652  0
    RNG1  C00000653  0
    RNG1  C00000654  0
    RNG1  C00000655  0
    RNG1  C00000656  0
    RNG1  C00000657  0
    RNG1  C00000658  0
    RNG1  C00000659  0
    RNG1  C00000660  0
    RNG1  C00000661  0
    RNG1  C00000662  0
    RNG1  C00000663  0
    RNG1  C00000664  0
    RNG1  C00000665  0
    RNG1  C00000666  0
    RNG1  C00000667  0
    RNG1  C00000668  0
    RNG1  C00000669  0
    RNG1  C00000670  0
    RNG1  C00000671  0
    RNG1  C00000672  0
    RNG1  C00000673  0
    RNG1  C00000674  0
    RNG1  C00000675  0
    RNG1  C00000676  0
    RNG1  C00000677  0
    RNG1  C00000678  0
    RNG1  C00000679  0
    RNG1  C00000680  0
    RNG1  C00000681  0
    RNG1  C00000682  0
    RNG1  C00000683  0
    RNG1  C00000684  0
    RNG1  C00000685  0
    RNG1  C00000686  0
    RNG1  C00000687  0
    RNG1  C00000688  0
    RNG1  C00000689  0
    RNG1  C00000690  0
    RNG1  C00000691  0
    RNG1  C00000692  0
    RNG1  C00000693  0
    RNG1  C00000694  0
    RNG1  C00000695  0
    RNG1  C00000696  0
    RNG1  C00000697  0
    RNG1  C00000698  0
    RNG1  C00000699  0
    RNG1  C00000700  0
    RNG1  C00000701  0
    RNG1  C00000702  0
    RNG1  C00000703  0
    RNG1  C00000704  0
    RNG1  C00000705  0
    RNG1  C00000706  0
    RNG1  C00000707  0
    RNG1  C00000708  0
    RNG1  C00000709  0
    RNG1  C00000710  0
    RNG1  C00000711  0
    RNG1  C00000712  0
    RNG1  C00000713  0
    RNG1  C00000714  0
    RNG1  C00000715  0
    RNG1  C00000716  0
    RNG1  C00000717  0
    RNG1  C00000718  0
    RNG1  C00000719  0
    RNG1  C00000720  0
    RNG1  C00000721  0
    RNG1  C00000722  0
    RNG1  C00000723  0
    RNG1  C00000724  0
    RNG1  C00000725  0
    RNG1  C00000726  0
    RNG1  C00000727  0
    RNG1  C00000728  0
    RNG1  C00000729  0
    RNG1  C00000730  0
    RNG1  C00000731  0
    RNG1  C00000732  0
    RNG1  C00000733  0
    RNG1  C00000734  0
    RNG1  C00000735  0
    RNG1  C00000736  0
    RNG1  C00000737  0
    RNG1  C00000738  0
    RNG1  C00000739  0
    RNG1  C00000740  0
    RNG1  C00000741  0
    RNG1  C00000742  0
    RNG1  C00000743  0
    RNG1  C00000744  0
    RNG1  C00000745  0
    RNG1  C00000746  0
    RNG1  C00000747  0
    RNG1  C00000748  0
    RNG1  C00000749  0
    RNG1  C00000750  0
    RNG1  C00000751  0
    RNG1  C00000752  0
    RNG1  C00000753  0
    RNG1  C00000754  0
    RNG1  C00000755  0
    RNG1  C00000756  0
    RNG1  C00000757  0
    RNG1  C00000758  0
    RNG1  C00000759  0
    RNG1  C00000760  0
    RNG1  C00000761  0
    RNG1  C00000762  0
    RNG1  C00000763  0
    RNG1  C00000764  0
    RNG1  C00000765  0
    RNG1  C00000766  0
    RNG1  C00000767  0
    RNG1  C00000768  0
    RNG1  C00000769  0
    RNG1  C00000770  0
    RNG1  C00000771  0
    RNG1  C00000772  0
    RNG1  C00000773  0
    RNG1  C00000774  0
    RNG1  C00000775  0
    RNG1  C00000776  0
    RNG1  C00000777  0
    RNG1  C00000778  0
    RNG1  C00000779  0
    RNG1  C00000780  0
    RNG1  C00000781  0
    RNG1  C00000782  0
    RNG1  C00000783  0
    RNG1  C00000784  0
    RNG1  C00000785  0
    RNG1  C00000786  0
    RNG1  C00000787  0
    RNG1  C00000788  0
    RNG1  C00000789  0
    RNG1  C00000790  0
    RNG1  C00000791  0
    RNG1  C00000792  0
    RNG1  C00000793  0
    RNG1  C00000794  0
    RNG1  C00000795  0
    RNG1  C00000796  0
    RNG1  C00000797  0
    RNG1  C00000798  0
    RNG1  C00000799  0
    RNG1  C00000800  0
    RNG1  C00000801  0
    RNG1  C00000802  0
    RNG1  C00000803  0
    RNG1  C00000804  0
    RNG1  C00000805  0
    RNG1  C00000806  0
    RNG1  C00000807  0
    RNG1  C00000808  0
    RNG1  C00000809  0
    RNG1  C00000810  0
    RNG1  C00000811  0
    RNG1  C00000812  0
    RNG1  C00000813  0
    RNG1  C00000814  0
    RNG1  C00000815  0
    RNG1  C00000816  0
    RNG1  C00000817  0
    RNG1  C00000818  0
    RNG1  C00000819  0
    RNG1  C00000820  0
    RNG1  C00000821  0
    RNG1  C00000822  0
    RNG1  C00000823  0
    RNG1  C00000824  0
    RNG1  C00000825  0
    RNG1  C00000826  0
    RNG1  C00000827  0
    RNG1  C00000828  0
    RNG1  C00000829  0
    RNG1  C00000830  0
    RNG1  C00000831  0
    RNG1  C00000832  0
    RNG1  C00000833  0
    RNG1  C00000834  0
    RNG1  C00000835  0
    RNG1  C00000836  0
    RNG1  C00000837  0
    RNG1  C00000838  0
    RNG1  C00000839  0
    RNG1  C00000840  0
    RNG1  C00000841  0
    RNG1  C00000842  0
    RNG1  C00000843  0
    RNG1  C00000844  0
    RNG1  C00000845  0
    RNG1  C00000846  0
    RNG1  C00000847  0
    RNG1  C00000848  0
    RNG1  C00000849  0
    RNG1  C00000850  0
    RNG1  C00000851  0
    RNG1  C00000852  0
    RNG1  C00000853  0
    RNG1  C00000854  0
    RNG1  C00000855  0
    RNG1  C00000856  0
    RNG1  C00000857  0
    RNG1  C00000858  0
    RNG1  C00000859  0
    RNG1  C00000860  0
    RNG1  C00000861  0
    RNG1  C00000862  0
    RNG1  C00000863  0
    RNG1  C00000864  0
    RNG1  C00000865  0
    RNG1  C00000866  0
    RNG1  C00000867  0
    RNG1  C00000868  0
    RNG1  C00000869  0
    RNG1  C00000870  0
    RNG1  C00000871  0
    RNG1  C00000872  0
    RNG1  C00000873  0
    RNG1  C00000874  0
    RNG1  C00000875  0
    RNG1  C00000876  0
    RNG1  C00000877  0
    RNG1  C00000878  0
    RNG1  C00000879  0
    RNG1  C00000880  0
    RNG1  C00000881  0
    RNG1  C00000882  0
    RNG1  C00000883  0
    RNG1  C00000884  0
    RNG1  C00000885  0
    RNG1  C00000886  0
    RNG1  C00000887  0
    RNG1  C00000888  0
    RNG1  C00000889  0
    RNG1  C00000890  0
    RNG1  C00000891  0
    RNG1  C00000892  0
    RNG1  C00000893  0
    RNG1  C00000894  0
    RNG1  C00000895  0
    RNG1  C00000896  0
    RNG1  C00000897  0
    RNG1  C00000898  0
    RNG1  C00000899  0
    RNG1  C00000900  0
    RNG1  C00000901  0
    RNG1  C00000902  0
    RNG1  C00000903  0
    RNG1  C00000904  0
    RNG1  C00000905  0
    RNG1  C00000906  0
    RNG1  C00000907  0
    RNG1  C00000908  0
    RNG1  C00000909  0
    RNG1  C00000910  0
    RNG1  C00000911  0
    RNG1  C00000912  0
    RNG1  C00000913  0
    RNG1  C00000914  0
    RNG1  C00000915  0
    RNG1  C00000916  0
    RNG1  C00000917  0
    RNG1  C00000918  0
    RNG1  C00000919  0
    RNG1  C00000920  0
    RNG1  C00000921  0
    RNG1  C00000922  0
    RNG1  C00000923  0
    RNG1  C00000924  0
    RNG1  C00000925  0
    RNG1  C00000926  0
    RNG1  C00000927  0
    RNG1  C00000928  0
    RNG1  C00000929  0
    RNG1  C00000930  0
    RNG1  C00000931  0
    RNG1  C00000932  0
    RNG1  C00000933  0
    RNG1  C00000934  0
    RNG1  C00000935  0
    RNG1  C00000936  0
    RNG1  C00000937  0
    RNG1  C00000938  0
    RNG1  C00000939  0
    RNG1  C00000940  0
    RNG1  C00000941  0
    RNG1  C00000942  0
    RNG1  C00000943  0
    RNG1  C00000944  0
    RNG1  C00000945  0
    RNG1  C00000946  0
    RNG1  C00000947  0
    RNG1  C00000948  0
    RNG1  C00000949  0
    RNG1  C00000950  0
    RNG1  C00000951  0
    RNG1  C00000952  0
    RNG1  C00000953  0
    RNG1  C00000954  0
    RNG1  C00000955  0
    RNG1  C00000956  0
    RNG1  C00000957  0
    RNG1  C00000958  0
    RNG1  C00000959  0
    RNG1  C00000960  0
    RNG1  C00000961  0
    RNG1  C00000962  0
    RNG1  C00000963  0
    RNG1  C00000964  0
    RNG1  C00000965  0
    RNG1  C00000966  0
    RNG1  C00000967  0
    RNG1  C00000968  0
    RNG1  C00000969  0
    RNG1  C00000970  0
    RNG1  C00000971  0
    RNG1  C00000972  0
    RNG1  C00000973  0
    RNG1  C00000974  0
    RNG1  C00000975  0
    RNG1  C00000976  0
    RNG1  C00000977  0
    RNG1  C00000978  0
    RNG1  C00000979  0
    RNG1  C00000980  0
    RNG1  C00000981  0
    RNG1  C00000982  0
    RNG1  C00000983  0
    RNG1  C00000984  0
    RNG1  C00000985  0
    RNG1  C00000986  0
    RNG1  C00000987  0
    RNG1  C00000988  0
    RNG1  C00000989  0
    RNG1  C00000990  0
    RNG1  C00000991  0
    RNG1  C00000992  0
    RNG1  C00000993  0
    RNG1  C00000994  0
    RNG1  C00000995  0
    RNG1  C00000996  0
    RNG1  C00000997  0
    RNG1  C00000998  0
    RNG1  C00000999  0
    RNG1  C00001000  0
    RNG1  C00001001  0
    RNG1  C00001002  0
    RNG1  C00001003  0
    RNG1  C00001004  0
    RNG1  C00001005  0
    RNG1  C00001006  0
    RNG1  C00001007  0
    RNG1  C00001008  0
    RNG1  C00001009  0
    RNG1  C00001010  0
    RNG1  C00001011  0
    RNG1  C00001012  0
    RNG1  C00001013  0
    RNG1  C00001014  0
    RNG1  C00001015  0
    RNG1  C00001016  0
    RNG1  C00001017  0
    RNG1  C00001018  0
    RNG1  C00001019  0
    RNG1  C00001020  0
    RNG1  C00001021  0
    RNG1  C00001022  0
    RNG1  C00001023  0
    RNG1  C00001024  0
    RNG1  C00001025  0
    RNG1  C00001026  0
    RNG1  C00001027  0
    RNG1  C00001028  0
    RNG1  C00001029  0
    RNG1  C00001030  0
    RNG1  C00001031  0
    RNG1  C00001032  0
    RNG1  C00001033  0
    RNG1  C00001034  0
    RNG1  C00001035  0
    RNG1  C00001036  0
    RNG1  C00001037  0
    RNG1  C00001038  0
    RNG1  C00001039  0
    RNG1  C00001040  0
    RNG1  C00001041  0
    RNG1  C00001042  0
    RNG1  C00001043  0
    RNG1  C00001044  0
    RNG1  C00001045  0
    RNG1  C00001046  0
    RNG1  C00001047  0
    RNG1  C00001048  0
    RNG1  C00001049  0
    RNG1  C00001050  0
    RNG1  C00001051  0
    RNG1  C00001052  0
    RNG1  C00001053  0
    RNG1  C00001054  0
    RNG1  C00001055  0
    RNG1  C00001056  0
    RNG1  C00001057  0
    RNG1  C00001058  0
    RNG1  C00001059  0
    RNG1  C00001060  0
    RNG1  C00001061  0
    RNG1  C00001062  0
    RNG1  C00001063  0
    RNG1  C00001064  0
    RNG1  C00001065  0
    RNG1  C00001066  0
    RNG1  C00001067  0
    RNG1  C00001068  0
    RNG1  C00001069  0
    RNG1  C00001070  0
    RNG1  C00001071  0
    RNG1  C00001072  0
    RNG1  C00001073  0
    RNG1  C00001074  0
    RNG1  C00001075  0
    RNG1  C00001076  0
    RNG1  C00001077  0
    RNG1  C00001078  0
    RNG1  C00001079  0
    RNG1  C00001080  0
    RNG1  C00001081  0
    RNG1  C00001082  0
    RNG1  C00001083  0
    RNG1  C00001084  0
    RNG1  C00001085  0
    RNG1  C00001086  0
    RNG1  C00001087  0
    RNG1  C00001088  0
    RNG1  C00001089  0
    RNG1  C00001090  0
    RNG1  C00001091  0
    RNG1  C00001092  0
    RNG1  C00001093  0
    RNG1  C00001094  0
    RNG1  C00001095  0
    RNG1  C00001096  0
    RNG1  C00001097  0
    RNG1  C00001098  0
    RNG1  C00001099  0
    RNG1  C00001100  0
    RNG1  C00001101  0
    RNG1  C00001102  0
    RNG1  C00001103  0
    RNG1  C00001104  0
    RNG1  C00001105  0
    RNG1  C00001106  0
    RNG1  C00001107  0
    RNG1  C00001108  0
    RNG1  C00001109  0
    RNG1  C00001110  0
    RNG1  C00001111  0
    RNG1  C00001112  0
    RNG1  C00001113  0
    RNG1  C00001114  0
    RNG1  C00001115  0
    RNG1  C00001116  0
    RNG1  C00001117  0
    RNG1  C00001118  0
    RNG1  C00001119  0
    RNG1  C00001120  0
    RNG1  C00001121  0
    RNG1  C00001122  0
    RNG1  C00001123  0
    RNG1  C00001124  0
    RNG1  C00001125  0
    RNG1  C00001126  0
    RNG1  C00001127  0
    RNG1  C00001128  0
    RNG1  C00001129  0
    RNG1  C00001130  0
    RNG1  C00001131  0
    RNG1  C00001132  0
    RNG1  C00001133  0
    RNG1  C00001134  0
    RNG1  C00001135  0
    RNG1  C00001136  0
    RNG1  C00001137  0
    RNG1  C00001138  0
    RNG1  C00001139  0
    RNG1  C00001140  0
    RNG1  C00001141  0
    RNG1  C00001142  0
    RNG1  C00001143  0
    RNG1  C00001144  0
    RNG1  C00001145  0
    RNG1  C00001146  0
    RNG1  C00001147  0
    RNG1  C00001148  0
    RNG1  C00001149  0
    RNG1  C00001150  0
    RNG1  C00001151  0
    RNG1  C00001152  0
    RNG1  C00001153  0
    RNG1  C00001154  0
    RNG1  C00001155  0
    RNG1  C00001156  0
    RNG1  C00001157  0
    RNG1  C00001158  0
    RNG1  C00001159  0
    RNG1  C00001160  0
    RNG1  C00001161  0
    RNG1  C00001162  0
    RNG1  C00001163  0
    RNG1  C00001164  0
    RNG1  C00001165  0
    RNG1  C00001166  0
    RNG1  C00001167  0
    RNG1  C00001168  0
    RNG1  C00001169  0
    RNG1  C00001170  0
    RNG1  C00001171  0
    RNG1  C00001172  0
    RNG1  C00001173  0
    RNG1  C00001174  0
    RNG1  C00001175  0
    RNG1  C00001176  0
    RNG1  C00001177  0
    RNG1  C00001178  0
    RNG1  C00001179  0
    RNG1  C00001180  0
    RNG1  C00001181  0
    RNG1  C00001182  0
    RNG1  C00001183  0
    RNG1  C00001184  0
    RNG1  C00001185  0
    RNG1  C00001186  0
    RNG1  C00001187  0
    RNG1  C00001188  0
    RNG1  C00001189  0
    RNG1  C00001190  0
    RNG1  C00001191  0
    RNG1  C00001192  0
    RNG1  C00001193  0
    RNG1  C00001194  0
    RNG1  C00001195  0
    RNG1  C00001196  0
    RNG1  C00001197  0
    RNG1  C00001198  0
    RNG1  C00001199  0
    RNG1  C00001200  0
    RNG1  C00001201  0
    RNG1  C00001202  0
    RNG1  C00001203  0
    RNG1  C00001204  0
    RNG1  C00001205  0
    RNG1  C00001206  0
    RNG1  C00001207  0
    RNG1  C00001208  0
    RNG1  C00001209  0
    RNG1  C00001210  0
    RNG1  C00001211  0
    RNG1  C00001212  0
    RNG1  C00001213  0
    RNG1  C00001214  0
    RNG1  C00001215  0
    RNG1  C00001216  0
    RNG1  C00001217  0
    RNG1  C00001218  0
    RNG1  C00001219  0
    RNG1  C00001220  0
    RNG1  C00001221  0
    RNG1  C00001222  0
    RNG1  C00001223  0
    RNG1  C00001224  0
    RNG1  C00001225  0
    RNG1  C00001226  0
    RNG1  C00001227  0
    RNG1  C00001228  0
    RNG1  C00001229  0
    RNG1  C00001230  0
    RNG1  C00001231  0
    RNG1  C00001232  0
    RNG1  C00001233  0
    RNG1  C00001234  0
    RNG1  C00001235  0
    RNG1  C00001236  0
    RNG1  C00001237  0
    RNG1  C00001238  0
    RNG1  C00001239  0
    RNG1  C00001240  0
    RNG1  C00001241  0
    RNG1  C00001242  0
    RNG1  C00001243  0
    RNG1  C00001244  0
    RNG1  C00001245  0
    RNG1  C00001246  0
    RNG1  C00001247  0
    RNG1  C00001248  0
    RNG1  C00001249  0
    RNG1  C00001250  0
    RNG1  C00001251  0
    RNG1  C00001252  0
    RNG1  C00001253  0
    RNG1  C00001254  0
    RNG1  C00001255  0
    RNG1  C00001256  0
    RNG1  C00001257  0
    RNG1  C00001258  0
    RNG1  C00001259  0
    RNG1  C00001260  0
    RNG1  C00001261  0
    RNG1  C00001262  0
    RNG1  C00001263  0
    RNG1  C00001264  0
    RNG1  C00001265  0
    RNG1  C00001266  0
    RNG1  C00001267  0
    RNG1  C00001268  0
    RNG1  C00001269  0
    RNG1  C00001270  0
    RNG1  C00001271  0
    RNG1  C00001272  0
    RNG1  C00001273  0
    RNG1  C00001274  0
    RNG1  C00001275  0
    RNG1  C00001276  0
    RNG1  C00001277  0
    RNG1  C00001278  0
    RNG1  C00001279  0
    RNG1  C00001280  0
    RNG1  C00001281  0
    RNG1  C00001282  0
    RNG1  C00001283  0
    RNG1  C00001284  0
    RNG1  C00001285  0
    RNG1  C00001286  0
    RNG1  C00001287  0
    RNG1  C00001288  0
    RNG1  C00001289  0
    RNG1  C00001290  0
    RNG1  C00001291  0
    RNG1  C00001292  0
    RNG1  C00001293  0
    RNG1  C00001294  0
    RNG1  C00001295  0
    RNG1  C00001296  0
    RNG1  C00001297  0
    RNG1  C00001298  0
    RNG1  C00001299  0
    RNG1  C00001300  0
    RNG1  C00001301  0
    RNG1  C00001302  0
    RNG1  C00001303  0
    RNG1  C00001304  0
    RNG1  C00001305  0
    RNG1  C00001306  0
    RNG1  C00001307  0
    RNG1  C00001308  0
    RNG1  C00001309  0
    RNG1  C00001310  0
    RNG1  C00001311  0
    RNG1  C00001312  0
    RNG1  C00001313  0
    RNG1  C00001314  0
    RNG1  C00001315  0
    RNG1  C00001316  0
    RNG1  C00001317  0
    RNG1  C00001318  0
    RNG1  C00001319  0
    RNG1  C00001320  0
    RNG1  C00001321  0
    RNG1  C00001322  0
    RNG1  C00001323  0
    RNG1  C00001324  0
    RNG1  C00001325  0
    RNG1  C00001326  0
    RNG1  C00001327  0
    RNG1  C00001328  0
    RNG1  C00001329  0
    RNG1  C00001330  0
    RNG1  C00001331  0
    RNG1  C00001332  0
    RNG1  C00001333  0
    RNG1  C00001334  0
    RNG1  C00001335  0
    RNG1  C00001336  0
    RNG1  C00001337  0
    RNG1  C00001338  0
    RNG1  C00001339  0
    RNG1  C00001340  0
    RNG1  C00001341  0
    RNG1  C00001342  0
    RNG1  C00001343  0
    RNG1  C00001344  0
    RNG1  C00001345  0
    RNG1  C00001346  0
    RNG1  C00001347  0
    RNG1  C00001348  0
    RNG1  C00001349  0
    RNG1  C00001350  0
    RNG1  C00001351  0
    RNG1  C00001352  0
    RNG1  C00001353  0
    RNG1  C00001354  0
    RNG1  C00001355  0
    RNG1  C00001356  0
    RNG1  C00001357  0
    RNG1  C00001358  0
    RNG1  C00001359  0
    RNG1  C00001360  0
    RNG1  C00001361  0
    RNG1  C00001362  0
    RNG1  C00001363  0
    RNG1  C00001364  0
    RNG1  C00001365  0
    RNG1  C00001366  0
    RNG1  C00001367  0
    RNG1  C00001368  0
    RNG1  C00001369  0
    RNG1  C00001370  0
    RNG1  C00001371  0
    RNG1  C00001372  0
    RNG1  C00001373  0
    RNG1  C00001374  0
    RNG1  C00001375  0
    RNG1  C00001376  0
    RNG1  C00001377  0
    RNG1  C00001378  0
    RNG1  C00001379  0
    RNG1  C00001380  0
    RNG1  C00001381  0
    RNG1  C00001382  0
    RNG1  C00001383  0
    RNG1  C00001384  0
    RNG1  C00001385  0
    RNG1  C00001386  0
    RNG1  C00001387  0
    RNG1  C00001388  0
    RNG1  C00001389  0
    RNG1  C00001390  0
    RNG1  C00001391  0
    RNG1  C00001392  0
    RNG1  C00001393  0
    RNG1  C00001394  0
    RNG1  C00001395  0
    RNG1  C00001396  0
    RNG1  C00001397  0
    RNG1  C00001398  0
    RNG1  C00001399  0
    RNG1  C00001400  0
    RNG1  C00001401  0
    RNG1  C00001402  0
    RNG1  C00001403  0
    RNG1  C00001404  0
    RNG1  C00001405  0
    RNG1  C00001406  0
    RNG1  C00001407  0
    RNG1  C00001408  0
    RNG1  C00001409  0
    RNG1  C00001410  0
    RNG1  C00001411  0
    RNG1  C00001412  0
    RNG1  C00001413  0
    RNG1  C00001414  0
    RNG1  C00001415  0
    RNG1  C00001416  0
    RNG1  C00001417  0
    RNG1  C00001418  0
    RNG1  C00001419  0
    RNG1  C00001420  0
    RNG1  C00001421  0
    RNG1  C00001422  0
    RNG1  C00001423  0
    RNG1  C00001424  0
    RNG1  C00001425  0
    RNG1  C00001426  0
    RNG1  C00001427  0
    RNG1  C00001428  0
    RNG1  C00001429  0
    RNG1  C00001430  0
    RNG1  C00001431  0
    RNG1  C00001432  0
    RNG1  C00001433  0
    RNG1  C00001434  0
    RNG1  C00001435  0
    RNG1  C00001436  0
    RNG1  C00001437  0
    RNG1  C00001438  0
    RNG1  C00001439  0
    RNG1  C00001440  0
    RNG1  C00001441  0
    RNG1  C00001442  0
    RNG1  C00001443  0
    RNG1  C00001444  0
    RNG1  C00001445  0
    RNG1  C00001446  0
    RNG1  C00001447  0
    RNG1  C00001448  0
    RNG1  C00001449  0
    RNG1  C00001450  0
    RNG1  C00001451  0
    RNG1  C00001452  0
    RNG1  C00001453  0
    RNG1  C00001454  0
    RNG1  C00001455  0
    RNG1  C00001456  0
    RNG1  C00001457  0
    RNG1  C00001458  0
    RNG1  C00001459  0
    RNG1  C00001460  0
    RNG1  C00001461  0
    RNG1  C00001462  0
    RNG1  C00001463  0
    RNG1  C00001464  0
    RNG1  C00001465  0
    RNG1  C00001466  0
    RNG1  C00001467  0
    RNG1  C00001468  0
    RNG1  C00001469  0
    RNG1  C00001470  0
    RNG1  C00001471  0
    RNG1  C00001472  0
    RNG1  C00001473  0
    RNG1  C00001474  0
    RNG1  C00001475  0
    RNG1  C00001476  0
    RNG1  C00001477  0
    RNG1  C00001478  0
    RNG1  C00001479  0
    RNG1  C00001480  0
    RNG1  C00001481  0
    RNG1  C00001482  0
    RNG1  C00001483  0
    RNG1  C00001484  0
    RNG1  C00001485  0
    RNG1  C00001486  0
    RNG1  C00001487  0
    RNG1  C00001488  0
    RNG1  C00001489  0
    RNG1  C00001490  0
    RNG1  C00001491  0
    RNG1  C00001492  0
    RNG1  C00001493  0
    RNG1  C00001494  0
    RNG1  C00001495  0
    RNG1  C00001496  0
    RNG1  C00001497  0
    RNG1  C00001498  0
    RNG1  C00001499  0
    RNG1  C00001500  0
    RNG1  C00001501  0
    RNG1  C00001502  0
    RNG1  C00001503  0
    RNG1  C00001504  0
    RNG1  C00001505  0
    RNG1  C00001506  0
    RNG1  C00001507  0
    RNG1  C00001508  0
    RNG1  C00001509  0
    RNG1  C00001510  0
    RNG1  C00001511  0
    RNG1  C00001512  0
    RNG1  C00001513  0
    RNG1  C00001514  0
    RNG1  C00001515  0
    RNG1  C00001516  0
    RNG1  C00001517  0
    RNG1  C00001518  0
    RNG1  C00001519  0
    RNG1  C00001520  0
    RNG1  C00001521  0
    RNG1  C00001522  0
    RNG1  C00001523  0
    RNG1  C00001524  0
    RNG1  C00001525  0
    RNG1  C00001526  0
    RNG1  C00001527  0
    RNG1  C00001528  0
    RNG1  C00001529  0
    RNG1  C00001530  0
    RNG1  C00001531  0
    RNG1  C00001532  0
    RNG1  C00001533  0
    RNG1  C00001534  0
    RNG1  C00001535  0
    RNG1  C00001536  0
    RNG1  C00001537  0
    RNG1  C00001538  0
    RNG1  C00001539  0
    RNG1  C00001540  0
    RNG1  C00001541  0
    RNG1  C00001542  0
    RNG1  C00001543  0
    RNG1  C00001544  0
    RNG1  C00001545  0
    RNG1  C00001546  0
    RNG1  C00001547  0
    RNG1  C00001548  0
    RNG1  C00001549  0
    RNG1  C00001550  0
    RNG1  C00001551  0
    RNG1  C00001552  0
    RNG1  C00001553  0
    RNG1  C00001554  0
    RNG1  C00001555  0
    RNG1  C00001556  0
    RNG1  C00001557  0
    RNG1  C00001558  0
    RNG1  C00001559  0
    RNG1  C00001560  0
    RNG1  C00001561  0
    RNG1  C00001562  0
    RNG1  C00001563  0
    RNG1  C00001564  0
    RNG1  C00001565  0
    RNG1  C00001566  0
    RNG1  C00001567  0
    RNG1  C00001568  0
    RNG1  C00001569  0
    RNG1  C00001570  0
    RNG1  C00001571  0
    RNG1  C00001572  0
    RNG1  C00001573  0
    RNG1  C00001574  0
    RNG1  C00001575  0
    RNG1  C00001576  0
    RNG1  C00001577  0
    RNG1  C00001578  0
    RNG1  C00001579  0
    RNG1  C00001580  0
    RNG1  C00001581  0
    RNG1  C00001582  0
    RNG1  C00001583  0
    RNG1  C00001584  0
    RNG1  C00001585  0
    RNG1  C00001586  0
    RNG1  C00001587  0
    RNG1  C00001588  0
    RNG1  C00001589  0
    RNG1  C00001590  0
    RNG1  C00001591  0
    RNG1  C00001592  0
    RNG1  C00001593  0
    RNG1  C00001594  0
    RNG1  C00001595  0
    RNG1  C00001596  0
    RNG1  C00001597  0
    RNG1  C00001598  0
    RNG1  C00001599  0
    RNG1  C00001600  0
    RNG1  C00001601  0
    RNG1  C00001602  0
    RNG1  C00001603  0
    RNG1  C00001604  0
    RNG1  C00001605  0
    RNG1  C00001606  0
    RNG1  C00001607  0
    RNG1  C00001608  0
    RNG1  C00001609  0
    RNG1  C00001610  0
    RNG1  C00001611  0
    RNG1  C00001612  0
    RNG1  C00001613  0
    RNG1  C00001614  0
    RNG1  C00001615  0
    RNG1  C00001616  0
    RNG1  C00001617  0
    RNG1  C00001618  0
    RNG1  C00001619  0
    RNG1  C00001620  0
    RNG1  C00001621  0
    RNG1  C00001622  0
    RNG1  C00001623  0
    RNG1  C00001624  0
    RNG1  C00001625  0
    RNG1  C00001626  0
    RNG1  C00001627  0
    RNG1  C00001628  0
    RNG1  C00001629  0
    RNG1  C00001630  0
    RNG1  C00001631  0
    RNG1  C00001632  0
    RNG1  C00001633  0
    RNG1  C00001634  0
    RNG1  C00001635  0
    RNG1  C00001636  0
    RNG1  C00001637  0
    RNG1  C00001638  0
    RNG1  C00001639  0
    RNG1  C00001640  0
    RNG1  C00001641  0
    RNG1  C00001642  0
    RNG1  C00001643  0
    RNG1  C00001644  0
    RNG1  C00001645  0
    RNG1  C00001646  0
    RNG1  C00001647  0
    RNG1  C00001648  0
    RNG1  C00001649  0
BOUNDS
 LO BND  X00000001  -107662000000
 UP BND  X00000001  107663000000
 LO BND  X00000002  78146800
 UP BND  X00000002  29821800000
 LO BND  X00000003  -1261160000
 UP BND  X00000003  1261150000
 LO BND  X00000004  -731501000
 UP BND  X00000004  731500000
 LO BND  X00000005  -18061000
 UP BND  X00000005  18060900
 LO BND  X00000006  -62813000000
 UP BND  X00000006  62813000000
 LO BND  X00000007  20656400
 UP BND  X00000007  258431000
 LO BND  X00000008  -97231200
 UP BND  X00000008  97230000
 LO BND  X00000009  -12661000000
 UP BND  X00000009  12661000000
 MI BND  X00000010
 UP BND  X00000010  0
 LO BND  X00000011  536690000
 UP BND  X00000011  9226600000
 LO BND  X00000012  36992
 UP BND  X00000012  462408
 MI BND  X00000013
 UP BND  X00000013  0
 LO BND  X00000014  91412
 UP BND  X00000014  1333510
 MI BND  X00000015
 UP BND  X00000015  0
 LO BND  X00000016  716892000
 UP BND  X00000016  8961200000
 MI BND  X00000017
 UP BND  X00000017  0
 MI BND  X00000018
 UP BND  X00000018  0
 LO BND  X00000019  -263610000
 UP BND  X00000019  263611000
 MI BND  X00000020
 UP BND  X00000020  0
 LO BND  X00000021  -26501200
 UP BND  X00000021  26501100
 MI BND  X00000022
 UP BND  X00000022  0
 LO BND  X00000023  49484
 UP BND  X00000023  618540
 LO BND  X00000024  -8536500
 UP BND  X00000024  8536500
 MI BND  X00000025
 UP BND  X00000025  0
 MI BND  X00000026
 UP BND  X00000026  0
 MI BND  X00000027
 UP BND  X00000027  0
 MI BND  X00000028
 UP BND  X00000028  0
 LO BND  X00000029  -17346100
 UP BND  X00000029  17346100
 MI BND  X00000030
 UP BND  X00000030  0
 LO BND  X00000031  -339896000
 UP BND  X00000031  339899000
 LO BND  X00000032  1177190
 UP BND  X00000032  14714900
 LO BND  X00000033  7389390
 UP BND  X00000033  92367000
 LO BND  X00000034  -5984780
 UP BND  X00000034  5984900
 MI BND  X00000035
 UP BND  X00000035  0
 LO BND  X00000036  1400790
 UP BND  X00000036  17509800
 MI BND  X00000037
 UP BND  X00000037  0
 MI BND  X00000038
 UP BND  X00000038  0
 LO BND  X00000039  -209318000
 UP BND  X00000039  209319000
 MI BND  X00000040
 UP BND  X00000040  0
 LO BND  X00000041  -61778900000
 UP BND  X00000041  61779000000
 LO BND  X00000042  450329000
 UP BND  X00000042  6109500000
 LO BND  X00000043  26950600
 UP BND  X00000043  336886000
 LO BND  X00000044  -59142800
 UP BND  X00000044  59144000
 LO BND  X00000045  -7159350
 UP BND  X00000045  7159400
 LO BND  X00000046  4100970000
 UP BND  X00000046  53797000000
 MI BND  X00000047
 UP BND  X00000047  0
 MI BND  X00000048
 UP BND  X00000048  0
 LO BND  X00000049  47644400
 UP BND  X00000049  1470160000
 MI BND  X00000050
 UP BND  X00000050  0
 LO BND  X00000051  -319708000
 UP BND  X00000051  319708000
 MI BND  X00000052
 UP BND  X00000052  0
 LO BND  X00000053  -32298200
 UP BND  X00000053  32298300
 LO BND  X00000054  679883
 UP BND  X00000054  16171100
 MI BND  X00000055
 UP BND  X00000055  0
 MI BND  X00000056
 UP BND  X00000056  0
 MI BND  X00000057
 UP BND  X00000057  0
 MI BND  X00000058
 UP BND  X00000058  0
 LO BND  X00000059  21699100
 UP BND  X00000059  271239000
 MI BND  X00000060
 UP BND  X00000060  0
 LO BND  X00000061  -2704320000
 UP BND  X00000061  2704330000
 LO BND  X00000062  -443574000
 UP BND  X00000062  443572000
 LO BND  X00000063  -521732000
 UP BND  X00000063  521720000
 LO BND  X00000064  -183183000
 UP BND  X00000064  183183000
 MI BND  X00000065
 UP BND  X00000065  0
 LO BND  X00000066  1817970
 UP BND  X00000066  22724700
 MI BND  X00000067
 UP BND  X00000067  0
 LO BND  X00000068  542471
 UP BND  X00000068  12051100
 LO BND  X00000069  -1521060000
 UP BND  X00000069  1521070000
 MI BND  X00000070
 UP BND  X00000070  0
 LO BND  X00000071  1809780000
 UP BND  X00000071  23003000000
 LO BND  X00000072  1835360000
 UP BND  X00000072  22989700000
 LO BND  X00000073  252673
 UP BND  X00000073  3364900
 LO BND  X00000074  -4389250
 UP BND  X00000074  4389210
 MI BND  X00000075
 UP BND  X00000075  0
 MI BND  X00000076
 UP BND  X00000076  0
 MI BND  X00000077
 UP BND  X00000077  0
 MI BND  X00000078
 UP BND  X00000078  0
 LO BND  X00000079  -5552320
 UP BND  X00000079  5552200
 MI BND  X00000080
 UP BND  X00000080  0
 LO BND  X00000081  308078000
 UP BND  X00000081  6321800000
 LO BND  X00000082  -16841000
 UP BND  X00000082  16840900
 LO BND  X00000083  32668
 UP BND  X00000083  408350
 LO BND  X00000084  -33253900
 UP BND  X00000084  33254000
 LO BND  X00000085  -1623000
 UP BND  X00000085  1623000
 MI BND  X00000086
 UP BND  X00000086  0
 MI BND  X00000087
 UP BND  X00000087  0
 LO BND  X00000088  -24770900
 UP BND  X00000088  24770900
 LO BND  X00000089  461873000
 UP BND  X00000089  6244900000
 MI BND  X00000090
 UP BND  X00000090  0
 LO BND  X00000091  -307648000
 UP BND  X00000091  307649000
 LO BND  X00000092  -28241800
 UP BND  X00000092  28241900
 LO BND  X00000093  704355
 UP BND  X00000093  15221400
 LO BND  X00000094  -197021000
 UP BND  X00000094  197022000
 LO BND  X00000095  29735
 UP BND  X00000095  371688
 MI BND  X00000096
 UP BND  X00000096  0
 MI BND  X00000097
 UP BND  X00000097  0
 MI BND  X00000098
 UP BND  X00000098  0
 LO BND  X00000099  -66792100
 UP BND  X00000099  66792000
 MI BND  X00000100
 UP BND  X00000100  0
 LO BND  X00000101  -595745000
 UP BND  X00000101  595740000
 LO BND  X00000102  7243520
 UP BND  X00000102  162896000
 MI BND  X00000103
 UP BND  X00000103  0
 LO BND  X00000104  -40086400
 UP BND  X00000104  40086200
 LO BND  X00000105  -1260790
 UP BND  X00000105  1260780
 LO BND  X00000106  1230600
 UP BND  X00000106  15382500
 LO BND  X00000107  20656400
 UP BND  X00000107  258204000
 LO BND  X00000108  52888
 UP BND  X00000108  1160450
 LO BND  X00000109  -116753000
 UP BND  X00000109  116754000
 MI BND  X00000110
 UP BND  X00000110  0
 LO BND  X00000111  -356488000
 UP BND  X00000111  356484000
 LO BND  X00000112  -6458070
 UP BND  X00000112  6458000
 LO BND  X00000113  -255803000
 UP BND  X00000113  255802000
 LO BND  X00000114  -65432800
 UP BND  X00000114  65434000
 LO BND  X00000115  -7492670
 UP BND  X00000115  7492600
 MI BND  X00000116
 UP BND  X00000116  0
 LO BND  X00000117  18146
 UP BND  X00000117  226825
 MI BND  X00000118
 UP BND  X00000118  0
 LO BND  X00000119  -21075100
 UP BND  X00000119  21075200
 MI BND  X00000120
 UP BND  X00000120  0
 LO BND  X00000121  -92606000
 UP BND  X00000121  92606000
 LO BND  X00000122  -10824300
 UP BND  X00000122  10824300
 LO BND  X00000123  144109
 UP BND  X00000123  2467030
 LO BND  X00000124  -30693900
 UP BND  X00000124  30694000
 LO BND  X00000125  12279
 UP BND  X00000125  153489
 MI BND  X00000126
 UP BND  X00000126  0
 MI BND  X00000127
 UP BND  X00000127  0
 LO BND  X00000128  213878
 UP BND  X00000128  2673470
 LO BND  X00000129  -45793800
 UP BND  X00000129  45793500
 MI BND  X00000130
 UP BND  X00000130  0
 LO BND  X00000131  -210596000
 UP BND  X00000131  210595000
 LO BND  X00000132  -25500100
 UP BND  X00000132  25500000
 MI BND  X00000133
 UP BND  X00000133  0
 LO BND  X00000134  -60908500
 UP BND  X00000134  60908000
 MI BND  X00000135
 UP BND  X00000135  0
 MI BND  X00000136
 UP BND  X00000136  0
 MI BND  X00000137
 UP BND  X00000137  0
 LO BND  X00000138  -56575100
 UP BND  X00000138  56575000
 LO BND  X00000139  -67612000
 UP BND  X00000139  67612000
 MI BND  X00000140
 UP BND  X00000140  0
 LO BND  X00000141  -21075300
 UP BND  X00000141  21075300
 LO BND  X00000142  -6882730
 UP BND  X00000142  6882800
 MI BND  X00000143
 UP BND  X00000143  0
 LO BND  X00000144  -5543650
 UP BND  X00000144  5543700
 MI BND  X00000145
 UP BND  X00000145  0
 MI BND  X00000146
 UP BND  X00000146  0
 MI BND  X00000147
 UP BND  X00000147  0
 MI BND  X00000148
 UP BND  X00000148  0
 LO BND  X00000149  -8648910
 UP BND  X00000149  8648900
 MI BND  X00000150
 UP BND  X00000150  0
 LO BND  X00000151  75600200
 UP BND  X00000151  2357310000
 LO BND  X00000152  -6286650
 UP BND  X00000152  6286600
 MI BND  X00000153
 UP BND  X00000153  0
 LO BND  X00000154  -19816700
 UP BND  X00000154  19816700
 MI BND  X00000155
 UP BND  X00000155  0
 MI BND  X00000156
 UP BND  X00000156  0
 MI BND  X00000157
 UP BND  X00000157  0
 MI BND  X00000158
 UP BND  X00000158  0
 LO BND  X00000159  127807000
 UP BND  X00000159  2331200000
 MI BND  X00000160
 UP BND  X00000160  0
 MI BND  X00000161
 UP BND  X00000161  0
 MI BND  X00000162
 UP BND  X00000162  0
 MI BND  X00000163
 UP BND  X00000163  0
 MI BND  X00000164
 UP BND  X00000164  0
 MI BND  X00000165
 UP BND  X00000165  0
 MI BND  X00000166
 UP BND  X00000166  0
 MI BND  X00000167
 UP BND  X00000167  0
 MI BND  X00000168
 UP BND  X00000168  0
 MI BND  X00000169
 UP BND  X00000169  0
 MI BND  X00000170
 UP BND  X00000170  0
 LO BND  X00000171  -1955020000
 UP BND  X00000171  1955030000
 LO BND  X00000172  -285392000
 UP BND  X00000172  285391000
 LO BND  X00000173  -85893100
 UP BND  X00000173  85893000
 LO BND  X00000174  -640369000
 UP BND  X00000174  640370000
 LO BND  X00000175  -6703430
 UP BND  X00000175  6703500
 MI BND  X00000176
 UP BND  X00000176  0
 LO BND  X00000177  20656400
 UP BND  X00000177  258204000
 LO BND  X00000178  -96514300
 UP BND  X00000178  96515000
 LO BND  X00000179  -581946000
 UP BND  X00000179  581940000
 MI BND  X00000180
 UP BND  X00000180  0
 LO BND  X00000181  91412
 UP BND  X00000181  1605050
 LO BND  X00000182  36992
 UP BND  X00000182  462408
 MI BND  X00000183
 UP BND  X00000183  0
 LO BND  X00000184  91412
 UP BND  X00000184  1142660
 MI BND  X00000185
 UP BND  X00000185  0
 MI BND  X00000186
 UP BND  X00000186  0
 MI BND  X00000187
 UP BND  X00000187  0
 MI BND  X00000188
 UP BND  X00000188  0
 MI BND  X00000189
 UP BND  X00000189  0
 MI BND  X00000190
 UP BND  X00000190  0
 LO BND  X00000191  -8709450
 UP BND  X00000191  8709400
 MI BND  X00000192
 UP BND  X00000192  0
 LO BND  X00000193  49484
 UP BND  X00000193  618540
 LO BND  X00000194  -8090900
 UP BND  X00000194  8090900
 MI BND  X00000195
 UP BND  X00000195  0
 MI BND  X00000196
 UP BND  X00000196  0
 MI BND  X00000197
 UP BND  X00000197  0
 MI BND  X00000198
 UP BND  X00000198  0
 MI BND  X00000199
 UP BND  X00000199  0
 MI BND  X00000200
 UP BND  X00000200  0
 LO BND  X00000201  -22200300
 UP BND  X00000201  22200400
 LO BND  X00000202  1177190
 UP BND  X00000202  14714900
 MI BND  X00000203
 UP BND  X00000203  0
 LO BND  X00000204  -5493080
 UP BND  X00000204  5493200
 MI BND  X00000205
 UP BND  X00000205  0
 MI BND  X00000206
 UP BND  X00000206  0
 MI BND  X00000207
 UP BND  X00000207  0
 MI BND  X00000208
 UP BND  X00000208  0
 LO BND  X00000209  159388
 UP BND  X00000209  1992350
 MI BND  X00000210
 UP BND  X00000210  0
 LO BND  X00000211  -67331300
 UP BND  X00000211  67332000
 LO BND  X00000212  -6537110
 UP BND  X00000212  6537100
 MI BND  X00000213
 UP BND  X00000213  0
 LO BND  X00000214  -55934500
 UP BND  X00000214  55934000
 LO BND  X00000215  34310
 UP BND  X00000215  567940
 MI BND  X00000216
 UP BND  X00000216  0
 MI BND  X00000217
 UP BND  X00000217  0
 MI BND  X00000218
 UP BND  X00000218  0
 LO BND  X00000219  243433
 UP BND  X00000219  4292140
 MI BND  X00000220
 UP BND  X00000220  0
 LO BND  X00000221  -313555000
 UP BND  X00000221  313554000
 MI BND  X00000222
 UP BND  X00000222  0
 LO BND  X00000223  -26365100
 UP BND  X00000223  26365100
 LO BND  X00000224  1120250
 UP BND  X00000224  15951000
 MI BND  X00000225
 UP BND  X00000225  0
 MI BND  X00000226
 UP BND  X00000226  0
 MI BND  X00000227
 UP BND  X00000227  0
 MI BND  X00000228
 UP BND  X00000228  0
 LO BND  X00000229  21699100
 UP BND  X00000229  271239000
 MI BND  X00000230
 UP BND  X00000230  0
 LO BND  X00000231  -246625000
 UP BND  X00000231  246626000
 LO BND  X00000232  -14855800
 UP BND  X00000232  14855800
 LO BND  X00000233  -46458600
 UP BND  X00000233  46458900
 LO BND  X00000234  -142825000
 UP BND  X00000234  142824000
 MI BND  X00000235
 UP BND  X00000235  0
 MI BND  X00000236
 UP BND  X00000236  0
 MI BND  X00000237
 UP BND  X00000237  0
 LO BND  X00000238  892786
 UP BND  X00000238  11334900
 LO BND  X00000239  -31151600
 UP BND  X00000239  31151600
 MI BND  X00000240
 UP BND  X00000240  0
 LO BND  X00000241  -16760600
 UP BND  X00000241  16760600
 LO BND  X00000242  211470
 UP BND  X00000242  4374220
 LO BND  X00000243  252673
 UP BND  X00000243  3158410
 LO BND  X00000244  -4389250
 UP BND  X00000244  4389210
 MI BND  X00000245
 UP BND  X00000245  0
 MI BND  X00000246
 UP BND  X00000246  0
 MI BND  X00000247
 UP BND  X00000247  0
 MI BND  X00000248
 UP BND  X00000248  0
 LO BND  X00000249  -4838760
 UP BND  X00000249  4838790
 MI BND  X00000250
 UP BND  X00000250  0
 LO BND  X00000251  -169111000
 UP BND  X00000251  169112000
 LO BND  X00000252  -16841000
 UP BND  X00000252  16840900
 LO BND  X00000253  32668
 UP BND  X00000253  408350
 LO BND  X00000254  -30599800
 UP BND  X00000254  30599700
 LO BND  X00000255  -1623000
 UP BND  X00000255  1623000
 MI BND  X00000256
 UP BND  X00000256  0
 MI BND  X00000257
 UP BND  X00000257  0
 LO BND  X00000258  -24770900
 UP BND  X00000258  24770900
 LO BND  X00000259  -94868300
 UP BND  X00000259  94869000
 MI BND  X00000260
 UP BND  X00000260  0
 LO BND  X00000261  -248972000
 UP BND  X00000261  248973000
 LO BND  X00000262  -9708230
 UP BND  X00000262  9708300
 LO BND  X00000263  513359
 UP BND  X00000263  6417000
 LO BND  X00000264  -188530000
 UP BND  X00000264  188529000
 LO BND  X00000265  29735
 UP BND  X00000265  371688
 MI BND  X00000266
 UP BND  X00000266  0
 MI BND  X00000267
 UP BND  X00000267  0
 MI BND  X00000268
 UP BND  X00000268  0
 LO BND  X00000269  -43946300
 UP BND  X00000269  43946300
 MI BND  X00000270
 UP BND  X00000270  0
 LO BND  X00000271  -479757000
 UP BND  X00000271  479756000
 LO BND  X00000272  7634130
 UP BND  X00000272  162701000
 MI BND  X00000273
 UP BND  X00000273  0
 LO BND  X00000274  -28551700
 UP BND  X00000274  28551800
 LO BND  X00000275  -1260790
 UP BND  X00000275  1260780
 MI BND  X00000276
 UP BND  X00000276  0
 LO BND  X00000277  20656400
 UP BND  X00000277  258204000
 LO BND  X00000278  52888
 UP BND  X00000278  1160450
 LO BND  X00000279  -27878300
 UP BND  X00000279  27878200
 MI BND  X00000280
 UP BND  X00000280  0
 LO BND  X00000281  -60114400
 UP BND  X00000281  60115000
 LO BND  X00000282  -6458070
 UP BND  X00000282  6458000
 MI BND  X00000283
 UP BND  X00000283  0
 LO BND  X00000284  -42783100
 UP BND  X00000284  42782800
 LO BND  X00000285  -2726570
 UP BND  X00000285  2726570
 MI BND  X00000286
 UP BND  X00000286  0
 MI BND  X00000287
 UP BND  X00000287  0
 MI BND  X00000288
 UP BND  X00000288  0
 LO BND  X00000289  590465
 UP BND  X00000289  8146900
 MI BND  X00000290
 UP BND  X00000290  0
 LO BND  X00000291  -76031400
 UP BND  X00000291  76032000
 LO BND  X00000292  -10069200
 UP BND  X00000292  10069100
 LO BND  X00000293  144109
 UP BND  X00000293  2467030
 LO BND  X00000294  -30693900
 UP BND  X00000294  30694000
 LO BND  X00000295  12279
 UP BND  X00000295  153489
 MI BND  X00000296
 UP BND  X00000296  0
 MI BND  X00000297
 UP BND  X00000297  0
 LO BND  X00000298  213878
 UP BND  X00000298  2673470
 LO BND  X00000299  -29974500
 UP BND  X00000299  29974500
 MI BND  X00000300
 UP BND  X00000300  0
 LO BND  X00000301  -193072000
 UP BND  X00000301  193072000
 LO BND  X00000302  -25500100
 UP BND  X00000302  25500000
 MI BND  X00000303
 UP BND  X00000303  0
 LO BND  X00000304  -60908500
 UP BND  X00000304  60908000
 MI BND  X00000305
 UP BND  X00000305  0
 MI BND  X00000306
 UP BND  X00000306  0
 MI BND  X00000307
 UP BND  X00000307  0
 LO BND  X00000308  -56575100
 UP BND  X00000308  56575000
 LO BND  X00000309  -50088600
 UP BND  X00000309  50088000
 MI BND  X00000310
 UP BND  X00000310  0
 LO BND  X00000311  -20193200
 UP BND  X00000311  20193100
 LO BND  X00000312  -6882730
 UP BND  X00000312  6882800
 MI BND  X00000313
 UP BND  X00000313  0
 LO BND  X00000314  -4661490
 UP BND  X00000314  4661520
 MI BND  X00000315
 UP BND  X00000315  0
 MI BND  X00000316
 UP BND  X00000316  0
 MI BND  X00000317
 UP BND  X00000317  0
 MI BND  X00000318
 UP BND  X00000318  0
 LO BND  X00000319  -8648910
 UP BND  X00000319  8648900
 MI BND  X00000320
 UP BND  X00000320  0
 LO BND  X00000321  -30982000
 UP BND  X00000321  30982100
 LO BND  X00000322  -6286650
 UP BND  X00000322  6286600
 MI BND  X00000323
 UP BND  X00000323  0
 LO BND  X00000324  -19816700
 UP BND  X00000324  19816700
 MI BND  X00000325
 UP BND  X00000325  0
 MI BND  X00000326
 UP BND  X00000326  0
 MI BND  X00000327
 UP BND  X00000327  0
 MI BND  X00000328
 UP BND  X00000328  0
 LO BND  X00000329  390294
 UP BND  X00000329  4878660
 MI BND  X00000330
 UP BND  X00000330  0
 MI BND  X00000331
 UP BND  X00000331  0
 MI BND  X00000332
 UP BND  X00000332  0
 MI BND  X00000333
 UP BND  X00000333  0
 MI BND  X00000334
 UP BND  X00000334  0
 MI BND  X00000335
 UP BND  X00000335  0
 MI BND  X00000336
 UP BND  X00000336  0
 MI BND  X00000337
 UP BND  X00000337  0
 MI BND  X00000338
 UP BND  X00000338  0
 MI BND  X00000339
 UP BND  X00000339  0
 MI BND  X00000340
 UP BND  X00000340  0
 LO BND  X00000341  -1014200000
 UP BND  X00000341  1014190000
 LO BND  X00000342  -235450000
 UP BND  X00000342  235449000
 LO BND  X00000343  -29800900
 UP BND  X00000343  29800900
 LO BND  X00000344  -268052000
 UP BND  X00000344  268051000
 LO BND  X00000345  -4617220
 UP BND  X00000345  4617260
 MI BND  X00000346
 UP BND  X00000346  0
 LO BND  X00000347  20656400
 UP BND  X00000347  258204000
 LO BND  X00000348  -8985220
 UP BND  X00000348  8985100
 LO BND  X00000349  -209085000
 UP BND  X00000349  209084000
 MI BND  X00000350
 UP BND  X00000350  0
 LO BND  X00000351  91412
 UP BND  X00000351  1605050
 LO BND  X00000352  36992
 UP BND  X00000352  462408
 MI BND  X00000353
 UP BND  X00000353  0
 LO BND  X00000354  91412
 UP BND  X00000354  1142660
 MI BND  X00000355
 UP BND  X00000355  0
 MI BND  X00000356
 UP BND  X00000356  0
 MI BND  X00000357
 UP BND  X00000357  0
 MI BND  X00000358
 UP BND  X00000358  0
 MI BND  X00000359
 UP BND  X00000359  0
 MI BND  X00000360
 UP BND  X00000360  0
 LO BND  X00000361  -8709450
 UP BND  X00000361  8709400
 MI BND  X00000362
 UP BND  X00000362  0
 LO BND  X00000363  49484
 UP BND  X00000363  618540
 LO BND  X00000364  -8090900
 UP BND  X00000364  8090900
 MI BND  X00000365
 UP BND  X00000365  0
 MI BND  X00000366
 UP BND  X00000366  0
 MI BND  X00000367
 UP BND  X00000367  0
 MI BND  X00000368
 UP BND  X00000368  0
 MI BND  X00000369
 UP BND  X00000369  0
 MI BND  X00000370
 UP BND  X00000370  0
 LO BND  X00000371  -22200300
 UP BND  X00000371  22200400
 LO BND  X00000372  1177190
 UP BND  X00000372  14714900
 MI BND  X00000373
 UP BND  X00000373  0
 LO BND  X00000374  -5493080
 UP BND  X00000374  5493200
 MI BND  X00000375
 UP BND  X00000375  0
 MI BND  X00000376
 UP BND  X00000376  0
 MI BND  X00000377
 UP BND  X00000377  0
 MI BND  X00000378
 UP BND  X00000378  0
 LO BND  X00000379  159388
 UP BND  X00000379  1992350
 MI BND  X00000380
 UP BND  X00000380  0
 LO BND  X00000381  -65995700
 UP BND  X00000381  65995000
 LO BND  X00000382  -6537110
 UP BND  X00000382  6537100
 MI BND  X00000383
 UP BND  X00000383  0
 LO BND  X00000384  -54597800
 UP BND  X00000384  54598000
 LO BND  X00000385  34310
 UP BND  X00000385  567940
 MI BND  X00000386
 UP BND  X00000386  0
 MI BND  X00000387
 UP BND  X00000387  0
 MI BND  X00000388
 UP BND  X00000388  0
 LO BND  X00000389  243433
 UP BND  X00000389  4292140
 MI BND  X00000390
 UP BND  X00000390  0
 LO BND  X00000391  1120250
 UP BND  X00000391  14003200
 MI BND  X00000392
 UP BND  X00000392  0
 MI BND  X00000393
 UP BND  X00000393  0
 LO BND  X00000394  1120250
 UP BND  X00000394  14003200
 MI BND  X00000395
 UP BND  X00000395  0
 MI BND  X00000396
 UP BND  X00000396  0
 MI BND  X00000397
 UP BND  X00000397  0
 MI BND  X00000398
 UP BND  X00000398  0
 MI BND  X00000399
 UP BND  X00000399  0
 MI BND  X00000400
 UP BND  X00000400  0
 LO BND  X00000401  -82786300
 UP BND  X00000401  82787000
 LO BND  X00000402  139733
 UP BND  X00000402  3160650
 LO BND  X00000403  2137230
 UP BND  X00000403  26715400
 LO BND  X00000404  -22538700
 UP BND  X00000404  22538700
 MI BND  X00000405
 UP BND  X00000405  0
 MI BND  X00000406
 UP BND  X00000406  0
 MI BND  X00000407
 UP BND  X00000407  0
 MI BND  X00000408
 UP BND  X00000408  0
 LO BND  X00000409  -30372100
 UP BND  X00000409  30372000
 MI BND  X00000410
 UP BND  X00000410  0
 LO BND  X00000411  72757
 UP BND  X00000411  1569610
 MI BND  X00000412
 UP BND  X00000412  0
 MI BND  X00000413
 UP BND  X00000413  0
 LO BND  X00000414  72757
 UP BND  X00000414  1569610
 MI BND  X00000415
 UP BND  X00000415  0
 MI BND  X00000416
 UP BND  X00000416  0
 MI BND  X00000417
 UP BND  X00000417  0
 MI BND  X00000418
 UP BND  X00000418  0
 MI BND  X00000419
 UP BND  X00000419  0
 MI BND  X00000420
 UP BND  X00000420  0
 LO BND  X00000421  -130180000
 UP BND  X00000421  130181000
 LO BND  X00000422  -12779000
 UP BND  X00000422  12778900
 MI BND  X00000423
 UP BND  X00000423  0
 LO BND  X00000424  -22492100
 UP BND  X00000424  22492200
 LO BND  X00000425  42896
 UP BND  X00000425  536200
 MI BND  X00000426
 UP BND  X00000426  0
 MI BND  X00000427
 UP BND  X00000427  0
 MI BND  X00000428
 UP BND  X00000428  0
 LO BND  X00000429  -94373700
 UP BND  X00000429  94373000
 MI BND  X00000430
 UP BND  X00000430  0
 LO BND  X00000431  -15509500
 UP BND  X00000431  15509400
 MI BND  X00000432
 UP BND  X00000432  0
 MI BND  X00000433
 UP BND  X00000433  0
 LO BND  X00000434  -3681560
 UP BND  X00000434  3681580
 MI BND  X00000435
 UP BND  X00000435  0
 MI BND  X00000436
 UP BND  X00000436  0
 MI BND  X00000437
 UP BND  X00000437  0
 MI BND  X00000438
 UP BND  X00000438  0
 LO BND  X00000439  946233
 UP BND  X00000439  11828000
 MI BND  X00000440
 UP BND  X00000440  0
 LO BND  X00000441  -460166000
 UP BND  X00000441  460168000
 LO BND  X00000442  7634130
 UP BND  X00000442  162701000
 MI BND  X00000443
 UP BND  X00000443  0
 LO BND  X00000444  -27639300
 UP BND  X00000444  27639200
 LO BND  X00000445  -965577
 UP BND  X00000445  965570
 MI BND  X00000446
 UP BND  X00000446  0
 LO BND  X00000447  20656400
 UP BND  X00000447  258204000
 LO BND  X00000448  52888
 UP BND  X00000448  1160450
 LO BND  X00000449  511889
 UP BND  X00000449  9494900
 MI BND  X00000450
 UP BND  X00000450  0
 LO BND  X00000451  -50782200
 UP BND  X00000451  50781000
 LO BND  X00000452  -2151140
 UP BND  X00000452  2151150
 MI BND  X00000453
 UP BND  X00000453  0
 LO BND  X00000454  -38855800
 UP BND  X00000454  38856300
 LO BND  X00000455  -2394020
 UP BND  X00000455  2394010
 MI BND  X00000456
 UP BND  X00000456  0
 MI BND  X00000457
 UP BND  X00000457  0
 MI BND  X00000458
 UP BND  X00000458  0
 LO BND  X00000459  590465
 UP BND  X00000459  7380800
 MI BND  X00000460
 UP BND  X00000460  0
 LO BND  X00000461  -76031400
 UP BND  X00000461  76032000
 LO BND  X00000462  -10069200
 UP BND  X00000462  10069100
 LO BND  X00000463  144109
 UP BND  X00000463  2467030
 LO BND  X00000464  -30693900
 UP BND  X00000464  30694000
 LO BND  X00000465  12279
 UP BND  X00000465  153489
 MI BND  X00000466
 UP BND  X00000466  0
 MI BND  X00000467
 UP BND  X00000467  0
 LO BND  X00000468  213878
 UP BND  X00000468  2673470
 LO BND  X00000469  -29974500
 UP BND  X00000469  29974500
 MI BND  X00000470
 UP BND  X00000470  0
 LO BND  X00000471  -34249300
 UP BND  X00000471  34249300
 LO BND  X00000472  -9704030
 UP BND  X00000472  9704100
 MI BND  X00000473
 UP BND  X00000473  0
 LO BND  X00000474  -13545200
 UP BND  X00000474  13545200
 MI BND  X00000475
 UP BND  X00000475  0
 MI BND  X00000476
 UP BND  X00000476  0
 MI BND  X00000477
 UP BND  X00000477  0
 LO BND  X00000478  412101
 UP BND  X00000478  5151300
 LO BND  X00000479  -5848840
 UP BND  X00000479  5848900
 MI BND  X00000480
 UP BND  X00000480  0
 LO BND  X00000481  -20193200
 UP BND  X00000481  20193100
 LO BND  X00000482  -6882730
 UP BND  X00000482  6882800
 MI BND  X00000483
 UP BND  X00000483  0
 LO BND  X00000484  -4661490
 UP BND  X00000484  4661520
 MI BND  X00000485
 UP BND  X00000485  0
 MI BND  X00000486
 UP BND  X00000486  0
 MI BND  X00000487
 UP BND  X00000487  0
 MI BND  X00000488
 UP BND  X00000488  0
 LO BND  X00000489  -8648910
 UP BND  X00000489  8648900
 MI BND  X00000490
 UP BND  X00000490  0
 LO BND  X00000491  -30211100
 UP BND  X00000491  30211000
 LO BND  X00000492  -6286650
 UP BND  X00000492  6286600
 MI BND  X00000493
 UP BND  X00000493  0
 LO BND  X00000494  -19045700
 UP BND  X00000494  19045700
 MI BND  X00000495
 UP BND  X00000495  0
 MI BND  X00000496
 UP BND  X00000496  0
 MI BND  X00000497
 UP BND  X00000497  0
 MI BND  X00000498
 UP BND  X00000498  0
 LO BND  X00000499  390294
 UP BND  X00000499  4878660
 MI BND  X00000500
 UP BND  X00000500  0
 MI BND  X00000501
 UP BND  X00000501  0
 MI BND  X00000502
 UP BND  X00000502  0
 MI BND  X00000503
 UP BND  X00000503  0
 MI BND  X00000504
 UP BND  X00000504  0
 MI BND  X00000505
 UP BND  X00000505  0
 MI BND  X00000506
 UP BND  X00000506  0
 MI BND  X00000507
 UP BND  X00000507  0
 MI BND  X00000508
 UP BND  X00000508  0
 MI BND  X00000509
 UP BND  X00000509  0
 MI BND  X00000510
 UP BND  X00000510  0
 LO BND  X00000511  -940831000
 UP BND  X00000511  940830000
 LO BND  X00000512  -49942400
 UP BND  X00000512  49942100
 LO BND  X00000513  -56092000
 UP BND  X00000513  56092000
 LO BND  X00000514  -372320000
 UP BND  X00000514  372321000
 LO BND  X00000515  -2086250
 UP BND  X00000515  2086260
 MI BND  X00000516
 UP BND  X00000516  0
 MI BND  X00000517
 UP BND  X00000517  0
 LO BND  X00000518  -87529400
 UP BND  X00000518  87530000
 LO BND  X00000519  -372860000
 UP BND  X00000519  372860000
 MI BND  X00000520
 UP BND  X00000520  0
 MI BND  X00000521
 UP BND  X00000521  0
 MI BND  X00000522
 UP BND  X00000522  0
 MI BND  X00000523
 UP BND  X00000523  0
 MI BND  X00000524
 UP BND  X00000524  0
 MI BND  X00000525
 UP BND  X00000525  0
 MI BND  X00000526
 UP BND  X00000526  0
 MI BND  X00000527
 UP BND  X00000527  0
 MI BND  X00000528
 UP BND  X00000528  0
 MI BND  X00000529
 UP BND  X00000529  0
 MI BND  X00000530
 UP BND  X00000530  0
 MI BND  X00000531
 UP BND  X00000531  0
 MI BND  X00000532
 UP BND  X00000532  0
 MI BND  X00000533
 UP BND  X00000533  0
 MI BND  X00000534
 UP BND  X00000534  0
 MI BND  X00000535
 UP BND  X00000535  0
 MI BND  X00000536
 UP BND  X00000536  0
 MI BND  X00000537
 UP BND  X00000537  0
 MI BND  X00000538
 UP BND  X00000538  0
 MI BND  X00000539
 UP BND  X00000539  0
 MI BND  X00000540
 UP BND  X00000540  0
 MI BND  X00000541
 UP BND  X00000541  0
 MI BND  X00000542
 UP BND  X00000542  0
 MI BND  X00000543
 UP BND  X00000543  0
 MI BND  X00000544
 UP BND  X00000544  0
 MI BND  X00000545
 UP BND  X00000545  0
 MI BND  X00000546
 UP BND  X00000546  0
 MI BND  X00000547
 UP BND  X00000547  0
 MI BND  X00000548
 UP BND  X00000548  0
 MI BND  X00000549
 UP BND  X00000549  0
 MI BND  X00000550
 UP BND  X00000550  0
 LO BND  X00000551  106906
 UP BND  X00000551  1336320
 MI BND  X00000552
 UP BND  X00000552  0
 MI BND  X00000553
 UP BND  X00000553  0
 LO BND  X00000554  106906
 UP BND  X00000554  1336320
 MI BND  X00000555
 UP BND  X00000555  0
 MI BND  X00000556
 UP BND  X00000556  0
 MI BND  X00000557
 UP BND  X00000557  0
 MI BND  X00000558
 UP BND  X00000558  0
 MI BND  X00000559
 UP BND  X00000559  0
 MI BND  X00000560
 UP BND  X00000560  0
 LO BND  X00000561  -299551000
 UP BND  X00000561  299552000
 MI BND  X00000562
 UP BND  X00000562  0
 LO BND  X00000563  -26365100
 UP BND  X00000563  26365100
 LO BND  X00000564  155824
 UP BND  X00000564  1947810
 MI BND  X00000565
 UP BND  X00000565  0
 MI BND  X00000566
 UP BND  X00000566  0
 MI BND  X00000567
 UP BND  X00000567  0
 MI BND  X00000568
 UP BND  X00000568  0
 LO BND  X00000569  21699100
 UP BND  X00000569  271239000
 MI BND  X00000570
 UP BND  X00000570  0
 LO BND  X00000571  -163839000
 UP BND  X00000571  163839000
 LO BND  X00000572  -11695200
 UP BND  X00000572  11695100
 LO BND  X00000573  -19743100
 UP BND  X00000573  19743200
 LO BND  X00000574  -120286000
 UP BND  X00000574  120286000
 MI BND  X00000575
 UP BND  X00000575  0
 MI BND  X00000576
 UP BND  X00000576  0
 MI BND  X00000577
 UP BND  X00000577  0
 LO BND  X00000578  892786
 UP BND  X00000578  11334900
 LO BND  X00000579  62365
 UP BND  X00000579  779560
 MI BND  X00000580
 UP BND  X00000580  0
 LO BND  X00000581  -15191000
 UP BND  X00000581  15190900
 LO BND  X00000582  211470
 UP BND  X00000582  4374220
 LO BND  X00000583  252673
 UP BND  X00000583  3158410
 LO BND  X00000584  -2819630
 UP BND  X00000584  2819640
 MI BND  X00000585
 UP BND  X00000585  0
 MI BND  X00000586
 UP BND  X00000586  0
 MI BND  X00000587
 UP BND  X00000587  0
 MI BND  X00000588
 UP BND  X00000588  0
 LO BND  X00000589  -4838760
 UP BND  X00000589  4838790
 MI BND  X00000590
 UP BND  X00000590  0
 LO BND  X00000591  -38931100
 UP BND  X00000591  38930900
 LO BND  X00000592  -4061970
 UP BND  X00000592  4061970
 LO BND  X00000593  32668
 UP BND  X00000593  408350
 LO BND  X00000594  -8107530
 UP BND  X00000594  8107600
 LO BND  X00000595  64446
 UP BND  X00000595  1086800
 MI BND  X00000596
 UP BND  X00000596  0
 MI BND  X00000597
 UP BND  X00000597  0
 LO BND  X00000598  -24770900
 UP BND  X00000598  24770900
 LO BND  X00000599  30150
 UP BND  X00000599  495445
 MI BND  X00000600
 UP BND  X00000600  0
 LO BND  X00000601  -233464000
 UP BND  X00000601  233463000
 LO BND  X00000602  -9708230
 UP BND  X00000602  9708300
 LO BND  X00000603  513359
 UP BND  X00000603  6417000
 LO BND  X00000604  -184848000
 UP BND  X00000604  184848000
 LO BND  X00000605  29735
 UP BND  X00000605  371688
 MI BND  X00000606
 UP BND  X00000606  0
 MI BND  X00000607
 UP BND  X00000607  0
 MI BND  X00000608
 UP BND  X00000608  0
 LO BND  X00000609  -32118500
 UP BND  X00000609  32118400
 MI BND  X00000610
 UP BND  X00000610  0
 LO BND  X00000611  157814
 UP BND  X00000611  19591000
 MI BND  X00000612
 UP BND  X00000612  0
 MI BND  X00000613
 UP BND  X00000613  0
 LO BND  X00000614  -912520
 UP BND  X00000614  912520
 LO BND  X00000615  23617
 UP BND  X00000615  295215
 MI BND  X00000616
 UP BND  X00000616  0
 MI BND  X00000617
 UP BND  X00000617  0
 MI BND  X00000618
 UP BND  X00000618  0
 LO BND  X00000619  1470660
 UP BND  X00000619  18383300
 MI BND  X00000620
 UP BND  X00000620  0
 LO BND  X00000621  -9332750
 UP BND  X00000621  9332700
 LO BND  X00000622  269175
 UP BND  X00000622  4306930
 MI BND  X00000623
 UP BND  X00000623  0
 LO BND  X00000624  -3927250
 UP BND  X00000624  3927210
 LO BND  X00000625  26604
 UP BND  X00000625  332556
 MI BND  X00000626
 UP BND  X00000626  0
 MI BND  X00000627
 UP BND  X00000627  0
 MI BND  X00000628
 UP BND  X00000628  0
 LO BND  X00000629  61285
 UP BND  X00000629  766060
 MI BND  X00000630
 UP BND  X00000630  0
 MI BND  X00000631
 UP BND  X00000631  0
 MI BND  X00000632
 UP BND  X00000632  0
 MI BND  X00000633
 UP BND  X00000633  0
 MI BND  X00000634
 UP BND  X00000634  0
 MI BND  X00000635
 UP BND  X00000635  0
 MI BND  X00000636
 UP BND  X00000636  0
 MI BND  X00000637
 UP BND  X00000637  0
 MI BND  X00000638
 UP BND  X00000638  0
 MI BND  X00000639
 UP BND  X00000639  0
 MI BND  X00000640
 UP BND  X00000640  0
 LO BND  X00000641  -158822000
 UP BND  X00000641  158823000
 LO BND  X00000642  -15796000
 UP BND  X00000642  15796000
 MI BND  X00000643
 UP BND  X00000643  0
 LO BND  X00000644  -47363300
 UP BND  X00000644  47363400
 MI BND  X00000645
 UP BND  X00000645  0
 MI BND  X00000646
 UP BND  X00000646  0
 MI BND  X00000647
 UP BND  X00000647  0
 LO BND  X00000648  -51423300
 UP BND  X00000648  51424000
 LO BND  X00000649  -44239500
 UP BND  X00000649  44239900
 MI BND  X00000650
 UP BND  X00000650  0
 MI BND  X00000651
 UP BND  X00000651  0
 MI BND  X00000652
 UP BND  X00000652  0
 MI BND  X00000653
 UP BND  X00000653  0
 MI BND  X00000654
 UP BND  X00000654  0
 MI BND  X00000655
 UP BND  X00000655  0
 MI BND  X00000656
 UP BND  X00000656  0
 MI BND  X00000657
 UP BND  X00000657  0
 MI BND  X00000658
 UP BND  X00000658  0
 MI BND  X00000659
 UP BND  X00000659  0
 MI BND  X00000660
 UP BND  X00000660  0
 LO BND  X00000661  61679
 UP BND  X00000661  770990
 MI BND  X00000662
 UP BND  X00000662  0
 MI BND  X00000663
 UP BND  X00000663  0
 LO BND  X00000664  61679
 UP BND  X00000664  770990
 MI BND  X00000665
 UP BND  X00000665  0
 MI BND  X00000666
 UP BND  X00000666  0
 MI BND  X00000667
 UP BND  X00000667  0
 MI BND  X00000668
 UP BND  X00000668  0
 MI BND  X00000669
 UP BND  X00000669  0
 MI BND  X00000670
 UP BND  X00000670  0
 MI BND  X00000671
 UP BND  X00000671  0
 MI BND  X00000672
 UP BND  X00000672  0
 MI BND  X00000673
 UP BND  X00000673  0
 MI BND  X00000674
 UP BND  X00000674  0
 MI BND  X00000675
 UP BND  X00000675  0
 MI BND  X00000676
 UP BND  X00000676  0
 MI BND  X00000677
 UP BND  X00000677  0
 MI BND  X00000678
 UP BND  X00000678  0
 MI BND  X00000679
 UP BND  X00000679  0
 MI BND  X00000680
 UP BND  X00000680  0
 LO BND  X00000681  -129698000
 UP BND  X00000681  129697000
 LO BND  X00000682  -5857160
 UP BND  X00000682  5857100
 LO BND  X00000683  32668
 UP BND  X00000683  408350
 LO BND  X00000684  -48173600
 UP BND  X00000684  48173700
 LO BND  X00000685  -1382020
 UP BND  X00000685  1382010
 MI BND  X00000686
 UP BND  X00000686  0
 MI BND  X00000687
 UP BND  X00000687  0
 LO BND  X00000688  -28375300
 UP BND  X00000688  28375200
 LO BND  X00000689  -45501000
 UP BND  X00000689  45500900
 MI BND  X00000690
 UP BND  X00000690  0
 MI BND  X00000691
 UP BND  X00000691  0
 MI BND  X00000692
 UP BND  X00000692  0
 MI BND  X00000693
 UP BND  X00000693  0
 MI BND  X00000694
 UP BND  X00000694  0
 MI BND  X00000695
 UP BND  X00000695  0
 MI BND  X00000696
 UP BND  X00000696  0
 MI BND  X00000697
 UP BND  X00000697  0
 MI BND  X00000698
 UP BND  X00000698  0
 MI BND  X00000699
 UP BND  X00000699  0
 MI BND  X00000700
 UP BND  X00000700  0
 MI BND  X00000701
 UP BND  X00000701  0
 MI BND  X00000702
 UP BND  X00000702  0
 MI BND  X00000703
 UP BND  X00000703  0
 MI BND  X00000704
 UP BND  X00000704  0
 MI BND  X00000705
 UP BND  X00000705  0
 MI BND  X00000706
 UP BND  X00000706  0
 MI BND  X00000707
 UP BND  X00000707  0
 MI BND  X00000708
 UP BND  X00000708  0
 MI BND  X00000709
 UP BND  X00000709  0
 MI BND  X00000710
 UP BND  X00000710  0
 MI BND  X00000711
 UP BND  X00000711  0
 MI BND  X00000712
 UP BND  X00000712  0
 MI BND  X00000713
 UP BND  X00000713  0
 MI BND  X00000714
 UP BND  X00000714  0
 MI BND  X00000715
 UP BND  X00000715  0
 MI BND  X00000716
 UP BND  X00000716  0
 MI BND  X00000717
 UP BND  X00000717  0
 MI BND  X00000718
 UP BND  X00000718  0
 MI BND  X00000719
 UP BND  X00000719  0
 MI BND  X00000720
 UP BND  X00000720  0
 LO BND  X00000721  106906
 UP BND  X00000721  1336320
 MI BND  X00000722
 UP BND  X00000722  0
 MI BND  X00000723
 UP BND  X00000723  0
 LO BND  X00000724  106906
 UP BND  X00000724  1336320
 MI BND  X00000725
 UP BND  X00000725  0
 MI BND  X00000726
 UP BND  X00000726  0
 MI BND  X00000727
 UP BND  X00000727  0
 MI BND  X00000728
 UP BND  X00000728  0
 MI BND  X00000729
 UP BND  X00000729  0
 MI BND  X00000730
 UP BND  X00000730  0
 MI BND  X00000731
 UP BND  X00000731  0
 MI BND  X00000732
 UP BND  X00000732  0
 MI BND  X00000733
 UP BND  X00000733  0
 MI BND  X00000734
 UP BND  X00000734  0
 MI BND  X00000735
 UP BND  X00000735  0
 MI BND  X00000736
 UP BND  X00000736  0
 MI BND  X00000737
 UP BND  X00000737  0
 MI BND  X00000738
 UP BND  X00000738  0
 MI BND  X00000739
 UP BND  X00000739  0
 MI BND  X00000740
 UP BND  X00000740  0
 LO BND  X00000741  -5632500
 UP BND  X00000741  5632500
 MI BND  X00000742
 UP BND  X00000742  0
 MI BND  X00000743
 UP BND  X00000743  0
 LO BND  X00000744  -5632500
 UP BND  X00000744  5632500
 MI BND  X00000745
 UP BND  X00000745  0
 MI BND  X00000746
 UP BND  X00000746  0
 MI BND  X00000747
 UP BND  X00000747  0
 MI BND  X00000748
 UP BND  X00000748  0
 MI BND  X00000749
 UP BND  X00000749  0
 MI BND  X00000750
 UP BND  X00000750  0
 MI BND  X00000751
 UP BND  X00000751  0
 MI BND  X00000752
 UP BND  X00000752  0
 MI BND  X00000753
 UP BND  X00000753  0
 MI BND  X00000754
 UP BND  X00000754  0
 MI BND  X00000755
 UP BND  X00000755  0
 MI BND  X00000756
 UP BND  X00000756  0
 MI BND  X00000757
 UP BND  X00000757  0
 MI BND  X00000758
 UP BND  X00000758  0
 MI BND  X00000759
 UP BND  X00000759  0
 MI BND  X00000760
 UP BND  X00000760  0
 LO BND  X00000761  -38931100
 UP BND  X00000761  38930900
 LO BND  X00000762  -4061970
 UP BND  X00000762  4061970
 LO BND  X00000763  32668
 UP BND  X00000763  408350
 LO BND  X00000764  -8107530
 UP BND  X00000764  8107600
 LO BND  X00000765  64446
 UP BND  X00000765  1086800
 MI BND  X00000766
 UP BND  X00000766  0
 MI BND  X00000767
 UP BND  X00000767  0
 LO BND  X00000768  -24770900
 UP BND  X00000768  24770900
 LO BND  X00000769  30150
 UP BND  X00000769  495445
 MI BND  X00000770
 UP BND  X00000770  0
 LO BND  X00000771  -24830500
 UP BND  X00000771  24830500
 MI BND  X00000772
 UP BND  X00000772  0
 MI BND  X00000773
 UP BND  X00000773  0
 LO BND  X00000774  -24830500
 UP BND  X00000774  24830500
 MI BND  X00000775
 UP BND  X00000775  0
 MI BND  X00000776
 UP BND  X00000776  0
 MI BND  X00000777
 UP BND  X00000777  0
 MI BND  X00000778
 UP BND  X00000778  0
 MI BND  X00000779
 UP BND  X00000779  0
 MI BND  X00000780
 UP BND  X00000780  0
 LO BND  X00000781  -1091740
 UP BND  X00000781  1091730
 MI BND  X00000782
 UP BND  X00000782  0
 MI BND  X00000783
 UP BND  X00000783  0
 LO BND  X00000784  -796520
 UP BND  X00000784  796520
 LO BND  X00000785  23617
 UP BND  X00000785  295215
 MI BND  X00000786
 UP BND  X00000786  0
 MI BND  X00000787
 UP BND  X00000787  0
 MI BND  X00000788
 UP BND  X00000788  0
 MI BND  X00000789
 UP BND  X00000789  0
 MI BND  X00000790
 UP BND  X00000790  0
 LO BND  X00000791  -5635500
 UP BND  X00000791  5635500
 LO BND  X00000792  75375
 UP BND  X00000792  942190
 MI BND  X00000793
 UP BND  X00000793  0
 LO BND  X00000794  -3927250
 UP BND  X00000794  3927210
 MI BND  X00000795
 UP BND  X00000795  0
 MI BND  X00000796
 UP BND  X00000796  0
 MI BND  X00000797
 UP BND  X00000797  0
 MI BND  X00000798
 UP BND  X00000798  0
 LO BND  X00000799  61285
 UP BND  X00000799  766060
 MI BND  X00000800
 UP BND  X00000800  0
 MI BND  X00000801
 UP BND  X00000801  0
 MI BND  X00000802
 UP BND  X00000802  0
 MI BND  X00000803
 UP BND  X00000803  0
 MI BND  X00000804
 UP BND  X00000804  0
 MI BND  X00000805
 UP BND  X00000805  0
 MI BND  X00000806
 UP BND  X00000806  0
 MI BND  X00000807
 UP BND  X00000807  0
 MI BND  X00000808
 UP BND  X00000808  0
 MI BND  X00000809
 UP BND  X00000809  0
 MI BND  X00000810
 UP BND  X00000810  0
 LO BND  X00000811  -51469100
 UP BND  X00000811  51469000
 LO BND  X00000812  40720
 UP BND  X00000812  852980
 MI BND  X00000813
 UP BND  X00000813  0
 LO BND  X00000814  -2772030
 UP BND  X00000814  2772040
 MI BND  X00000815
 UP BND  X00000815  0
 MI BND  X00000816
 UP BND  X00000816  0
 MI BND  X00000817
 UP BND  X00000817  0
 LO BND  X00000818  288346
 UP BND  X00000818  3604350
 LO BND  X00000819  -44239500
 UP BND  X00000819  44239900
 MI BND  X00000820
 UP BND  X00000820  0
 MI BND  X00000821
 UP BND  X00000821  0
 MI BND  X00000822
 UP BND  X00000822  0
 MI BND  X00000823
 UP BND  X00000823  0
 MI BND  X00000824
 UP BND  X00000824  0
 MI BND  X00000825
 UP BND  X00000825  0
 MI BND  X00000826
 UP BND  X00000826  0
 MI BND  X00000827
 UP BND  X00000827  0
 MI BND  X00000828
 UP BND  X00000828  0
 MI BND  X00000829
 UP BND  X00000829  0
 MI BND  X00000830
 UP BND  X00000830  0
 LO BND  X00000831  61679
 UP BND  X00000831  770990
 MI BND  X00000832
 UP BND  X00000832  0
 MI BND  X00000833
 UP BND  X00000833  0
 LO BND  X00000834  61679
 UP BND  X00000834  770990
 MI BND  X00000835
 UP BND  X00000835  0
 MI BND  X00000836
 UP BND  X00000836  0
 MI BND  X00000837
 UP BND  X00000837  0
 MI BND  X00000838
 UP BND  X00000838  0
 MI BND  X00000839
 UP BND  X00000839  0
 MI BND  X00000840
 UP BND  X00000840  0
 MI BND  X00000841
 UP BND  X00000841  0
 MI BND  X00000842
 UP BND  X00000842  0
 MI BND  X00000843
 UP BND  X00000843  0
 MI BND  X00000844
 UP BND  X00000844  0
 MI BND  X00000845
 UP BND  X00000845  0
 MI BND  X00000846
 UP BND  X00000846  0
 MI BND  X00000847
 UP BND  X00000847  0
 MI BND  X00000848
 UP BND  X00000848  0
 MI BND  X00000849
 UP BND  X00000849  0
 MI BND  X00000850
 UP BND  X00000850  0
 LO BND  X00000851  -811128000
 UP BND  X00000851  811140000
 LO BND  X00000852  -44085300
 UP BND  X00000852  44085400
 LO BND  X00000853  -55683300
 UP BND  X00000853  55684000
 LO BND  X00000854  -324145000
 UP BND  X00000854  324146000
 LO BND  X00000855  29735
 UP BND  X00000855  704250
 MI BND  X00000856
 UP BND  X00000856  0
 MI BND  X00000857
 UP BND  X00000857  0
 LO BND  X00000858  -59154700
 UP BND  X00000858  59154000
 LO BND  X00000859  -327359000
 UP BND  X00000859  327358000
 MI BND  X00000860
 UP BND  X00000860  0
 MI BND  X00000861
 UP BND  X00000861  0
 MI BND  X00000862
 UP BND  X00000862  0
 MI BND  X00000863
 UP BND  X00000863  0
 MI BND  X00000864
 UP BND  X00000864  0
 MI BND  X00000865
 UP BND  X00000865  0
 MI BND  X00000866
 UP BND  X00000866  0
 MI BND  X00000867
 UP BND  X00000867  0
 MI BND  X00000868
 UP BND  X00000868  0
 MI BND  X00000869
 UP BND  X00000869  0
 MI BND  X00000870
 UP BND  X00000870  0
 MI BND  X00000871
 UP BND  X00000871  0
 MI BND  X00000872
 UP BND  X00000872  0
 MI BND  X00000873
 UP BND  X00000873  0
 MI BND  X00000874
 UP BND  X00000874  0
 MI BND  X00000875
 UP BND  X00000875  0
 MI BND  X00000876
 UP BND  X00000876  0
 MI BND  X00000877
 UP BND  X00000877  0
 MI BND  X00000878
 UP BND  X00000878  0
 MI BND  X00000879
 UP BND  X00000879  0
 MI BND  X00000880
 UP BND  X00000880  0
 MI BND  X00000881
 UP BND  X00000881  0
 MI BND  X00000882
 UP BND  X00000882  0
 MI BND  X00000883
 UP BND  X00000883  0
 MI BND  X00000884
 UP BND  X00000884  0
 MI BND  X00000885
 UP BND  X00000885  0
 MI BND  X00000886
 UP BND  X00000886  0
 MI BND  X00000887
 UP BND  X00000887  0
 MI BND  X00000888
 UP BND  X00000888  0
 MI BND  X00000889
 UP BND  X00000889  0
 MI BND  X00000890
 UP BND  X00000890  0
 MI BND  X00000891
 UP BND  X00000891  0
 MI BND  X00000892
 UP BND  X00000892  0
 MI BND  X00000893
 UP BND  X00000893  0
 MI BND  X00000894
 UP BND  X00000894  0
 MI BND  X00000895
 UP BND  X00000895  0
 MI BND  X00000896
 UP BND  X00000896  0
 MI BND  X00000897
 UP BND  X00000897  0
 MI BND  X00000898
 UP BND  X00000898  0
 MI BND  X00000899
 UP BND  X00000899  0
 MI BND  X00000900
 UP BND  X00000900  0
 LO BND  X00000901  -299551000
 UP BND  X00000901  299552000
 MI BND  X00000902
 UP BND  X00000902  0
 LO BND  X00000903  -26365100
 UP BND  X00000903  26365100
 LO BND  X00000904  155824
 UP BND  X00000904  1947810
 MI BND  X00000905
 UP BND  X00000905  0
 MI BND  X00000906
 UP BND  X00000906  0
 MI BND  X00000907
 UP BND  X00000907  0
 MI BND  X00000908
 UP BND  X00000908  0
 LO BND  X00000909  21699100
 UP BND  X00000909  271239000
 MI BND  X00000910
 UP BND  X00000910  0
 LO BND  X00000911  -158207000
 UP BND  X00000911  158206000
 LO BND  X00000912  -11695200
 UP BND  X00000912  11695100
 LO BND  X00000913  -19743100
 UP BND  X00000913  19743200
 LO BND  X00000914  -114653000
 UP BND  X00000914  114654000
 MI BND  X00000915
 UP BND  X00000915  0
 MI BND  X00000916
 UP BND  X00000916  0
 MI BND  X00000917
 UP BND  X00000917  0
 LO BND  X00000918  892786
 UP BND  X00000918  11334900
 LO BND  X00000919  62365
 UP BND  X00000919  779560
 MI BND  X00000920
 UP BND  X00000920  0
 LO BND  X00000921  -15191000
 UP BND  X00000921  15190900
 LO BND  X00000922  211470
 UP BND  X00000922  4374220
 LO BND  X00000923  252673
 UP BND  X00000923  3158410
 LO BND  X00000924  -2819630
 UP BND  X00000924  2819640
 MI BND  X00000925
 UP BND  X00000925  0
 MI BND  X00000926
 UP BND  X00000926  0
 MI BND  X00000927
 UP BND  X00000927  0
 MI BND  X00000928
 UP BND  X00000928  0
 LO BND  X00000929  -4838760
 UP BND  X00000929  4838790
 MI BND  X00000930
 UP BND  X00000930  0
 MI BND  X00000931
 UP BND  X00000931  0
 MI BND  X00000932
 UP BND  X00000932  0
 MI BND  X00000933
 UP BND  X00000933  0
 MI BND  X00000934
 UP BND  X00000934  0
 MI BND  X00000935
 UP BND  X00000935  0
 MI BND  X00000936
 UP BND  X00000936  0
 MI BND  X00000937
 UP BND  X00000937  0
 MI BND  X00000938
 UP BND  X00000938  0
 MI BND  X00000939
 UP BND  X00000939  0
 MI BND  X00000940
 UP BND  X00000940  0
 LO BND  X00000941  -208633000
 UP BND  X00000941  208632000
 LO BND  X00000942  -9708230
 UP BND  X00000942  9708300
 LO BND  X00000943  513359
 UP BND  X00000943  6417000
 LO BND  X00000944  -160018000
 UP BND  X00000944  160017000
 LO BND  X00000945  29735
 UP BND  X00000945  371688
 MI BND  X00000946
 UP BND  X00000946  0
 MI BND  X00000947
 UP BND  X00000947  0
 MI BND  X00000948
 UP BND  X00000948  0
 LO BND  X00000949  -32118500
 UP BND  X00000949  32118400
 MI BND  X00000950
 UP BND  X00000950  0
 LO BND  X00000951  1470660
 UP BND  X00000951  18499300
 MI BND  X00000952
 UP BND  X00000952  0
 MI BND  X00000953
 UP BND  X00000953  0
 LO BND  X00000954  9280
 UP BND  X00000954  116001
 MI BND  X00000955
 UP BND  X00000955  0
 MI BND  X00000956
 UP BND  X00000956  0
 MI BND  X00000957
 UP BND  X00000957  0
 MI BND  X00000958
 UP BND  X00000958  0
 LO BND  X00000959  1470660
 UP BND  X00000959  18383300
 MI BND  X00000960
 UP BND  X00000960  0
 LO BND  X00000961  269175
 UP BND  X00000961  3697200
 LO BND  X00000962  269175
 UP BND  X00000962  3364710
 MI BND  X00000963
 UP BND  X00000963  0
 MI BND  X00000964
 UP BND  X00000964  0
 LO BND  X00000965  26604
 UP BND  X00000965  332556
 MI BND  X00000966
 UP BND  X00000966  0
 MI BND  X00000967
 UP BND  X00000967  0
 MI BND  X00000968
 UP BND  X00000968  0
 MI BND  X00000969
 UP BND  X00000969  0
 MI BND  X00000970
 UP BND  X00000970  0
 MI BND  X00000971
 UP BND  X00000971  0
 MI BND  X00000972
 UP BND  X00000972  0
 MI BND  X00000973
 UP BND  X00000973  0
 MI BND  X00000974
 UP BND  X00000974  0
 MI BND  X00000975
 UP BND  X00000975  0
 MI BND  X00000976
 UP BND  X00000976  0
 MI BND  X00000977
 UP BND  X00000977  0
 MI BND  X00000978
 UP BND  X00000978  0
 MI BND  X00000979
 UP BND  X00000979  0
 MI BND  X00000980
 UP BND  X00000980  0
 LO BND  X00000981  -107353000
 UP BND  X00000981  107354000
 LO BND  X00000982  -14943000
 UP BND  X00000982  14943100
 MI BND  X00000983
 UP BND  X00000983  0
 LO BND  X00000984  -44591200
 UP BND  X00000984  44591500
 MI BND  X00000985
 UP BND  X00000985  0
 MI BND  X00000986
 UP BND  X00000986  0
 MI BND  X00000987
 UP BND  X00000987  0
 LO BND  X00000988  -47819400
 UP BND  X00000988  47819300
 MI BND  X00000989
 UP BND  X00000989  0
 MI BND  X00000990
 UP BND  X00000990  0
 MI BND  X00000991
 UP BND  X00000991  0
 MI BND  X00000992
 UP BND  X00000992  0
 MI BND  X00000993
 UP BND  X00000993  0
 MI BND  X00000994
 UP BND  X00000994  0
 MI BND  X00000995
 UP BND  X00000995  0
 MI BND  X00000996
 UP BND  X00000996  0
 MI BND  X00000997
 UP BND  X00000997  0
 MI BND  X00000998
 UP BND  X00000998  0
 MI BND  X00000999
 UP BND  X00000999  0
 MI BND  X00001000
 UP BND  X00001000  0
 MI BND  X00001001
 UP BND  X00001001  0
 MI BND  X00001002
 UP BND  X00001002  0
 MI BND  X00001003
 UP BND  X00001003  0
 MI BND  X00001004
 UP BND  X00001004  0
 MI BND  X00001005
 UP BND  X00001005  0
 MI BND  X00001006
 UP BND  X00001006  0
 MI BND  X00001007
 UP BND  X00001007  0
 MI BND  X00001008
 UP BND  X00001008  0
 MI BND  X00001009
 UP BND  X00001009  0
 MI BND  X00001010
 UP BND  X00001010  0
 MI BND  X00001011
 UP BND  X00001011  0
 MI BND  X00001012
 UP BND  X00001012  0
 MI BND  X00001013
 UP BND  X00001013  0
 MI BND  X00001014
 UP BND  X00001014  0
 MI BND  X00001015
 UP BND  X00001015  0
 MI BND  X00001016
 UP BND  X00001016  0
 MI BND  X00001017
 UP BND  X00001017  0
 MI BND  X00001018
 UP BND  X00001018  0
 MI BND  X00001019
 UP BND  X00001019  0
 MI BND  X00001020
 UP BND  X00001020  0
 LO BND  X00001021  -105707000000
 UP BND  X00001021  105707000000
 LO BND  X00001022  648930000
 UP BND  X00001022  29536400000
 LO BND  X00001023  -1175260000
 UP BND  X00001023  1175270000
 LO BND  X00001024  -91128400
 UP BND  X00001024  91129000
 LO BND  X00001025  -11357400
 UP BND  X00001025  11357500
 LO BND  X00001026  -62813000000
 UP BND  X00001026  62813000000
 LO BND  X00001027  18146
 UP BND  X00001027  226825
 LO BND  X00001028  57283
 UP BND  X00001028  716040
 LO BND  X00001029  -12079100000
 UP BND  X00001029  12079000000
 MI BND  X00001030
 UP BND  X00001030  0
 LO BND  X00001031  539900000
 UP BND  X00001031  9225000000
 MI BND  X00001032
 UP BND  X00001032  0
 MI BND  X00001033
 UP BND  X00001033  0
 LO BND  X00001034  15268
 UP BND  X00001034  190855
 MI BND  X00001035
 UP BND  X00001035  0
 LO BND  X00001036  716892000
 UP BND  X00001036  8961200000
 MI BND  X00001037
 UP BND  X00001037  0
 MI BND  X00001038
 UP BND  X00001038  0
 LO BND  X00001039  -263610000
 UP BND  X00001039  263611000
 MI BND  X00001040
 UP BND  X00001040  0
 LO BND  X00001041  -17791700
 UP BND  X00001041  17791700
 MI BND  X00001042
 UP BND  X00001042  0
 MI BND  X00001043
 UP BND  X00001043  0
 LO BND  X00001044  35648
 UP BND  X00001044  445608
 MI BND  X00001045
 UP BND  X00001045  0
 MI BND  X00001046
 UP BND  X00001046  0
 MI BND  X00001047
 UP BND  X00001047  0
 MI BND  X00001048
 UP BND  X00001048  0
 LO BND  X00001049  -17346100
 UP BND  X00001049  17346100
 MI BND  X00001050
 UP BND  X00001050  0
 LO BND  X00001051  -317695000
 UP BND  X00001051  317695000
 MI BND  X00001052
 UP BND  X00001052  0
 LO BND  X00001053  7389390
 UP BND  X00001053  92367000
 LO BND  X00001054  39336
 UP BND  X00001054  491698
 MI BND  X00001055
 UP BND  X00001055  0
 LO BND  X00001056  1400790
 UP BND  X00001056  17509800
 MI BND  X00001057
 UP BND  X00001057  0
 MI BND  X00001058
 UP BND  X00001058  0
 LO BND  X00001059  -207326000
 UP BND  X00001059  207327000
 MI BND  X00001060
 UP BND  X00001060  0
 LO BND  X00001061  -61711300000
 UP BND  X00001061  61712000000
 LO BND  X00001062  463403000
 UP BND  X00001062  6103000000
 LO BND  X00001063  26950600
 UP BND  X00001063  336886000
 LO BND  X00001064  -3208750
 UP BND  X00001064  3208740
 LO BND  X00001065  511532
 UP BND  X00001065  6591400
 LO BND  X00001066  4100970000
 UP BND  X00001066  53797000000
 MI BND  X00001067
 UP BND  X00001067  0
 MI BND  X00001068
 UP BND  X00001068  0
 LO BND  X00001069  56228700
 UP BND  X00001069  1465860000
 MI BND  X00001070
 UP BND  X00001070  0
 LO BND  X00001071  474654
 UP BND  X00001071  6153400
 MI BND  X00001072
 UP BND  X00001072  0
 LO BND  X00001073  474654
 UP BND  X00001073  5933100
 LO BND  X00001074  17615
 UP BND  X00001074  220185
 MI BND  X00001075
 UP BND  X00001075  0
 MI BND  X00001076
 UP BND  X00001076  0
 MI BND  X00001077
 UP BND  X00001077  0
 MI BND  X00001078
 UP BND  X00001078  0
 MI BND  X00001079
 UP BND  X00001079  0
 MI BND  X00001080
 UP BND  X00001080  0
 LO BND  X00001081  -2457700000
 UP BND  X00001081  2457700000
 LO BND  X00001082  -428718000
 UP BND  X00001082  428714000
 LO BND  X00001083  -475269000
 UP BND  X00001083  475271000
 LO BND  X00001084  -40358200
 UP BND  X00001084  40358600
 MI BND  X00001085
 UP BND  X00001085  0
 LO BND  X00001086  1817970
 UP BND  X00001086  22724700
 MI BND  X00001087
 UP BND  X00001087  0
 LO BND  X00001088  57283
 UP BND  X00001088  716040
 LO BND  X00001089  -1489920000
 UP BND  X00001089  1489910000
 MI BND  X00001090
 UP BND  X00001090  0
 LO BND  X00001091  1838410000
 UP BND  X00001091  22986200000
 LO BND  X00001092  1838820000
 UP BND  X00001092  22985200000
 LO BND  X00001093  16516
 UP BND  X00001093  206444
 MI BND  X00001094
 UP BND  X00001094  0
 MI BND  X00001095
 UP BND  X00001095  0
 MI BND  X00001096
 UP BND  X00001096  0
 MI BND  X00001097
 UP BND  X00001097  0
 MI BND  X00001098
 UP BND  X00001098  0
 LO BND  X00001099  57082
 UP BND  X00001099  713520
 MI BND  X00001100
 UP BND  X00001100  0
 LO BND  X00001101  489826000
 UP BND  X00001101  6152600000
 MI BND  X00001102
 UP BND  X00001102  0
 MI BND  X00001103
 UP BND  X00001103  0
 LO BND  X00001104  212335
 UP BND  X00001104  2654190
 MI BND  X00001105
 UP BND  X00001105  0
 MI BND  X00001106
 UP BND  X00001106  0
 MI BND  X00001107
 UP BND  X00001107  0
 MI BND  X00001108
 UP BND  X00001108  0
 LO BND  X00001109  491913000
 UP BND  X00001109  6150000000
 MI BND  X00001110
 UP BND  X00001110  0
 LO BND  X00001111  -58676100
 UP BND  X00001111  58676000
 LO BND  X00001112  1482690
 UP BND  X00001112  18533600
 LO BND  X00001113  704355
 UP BND  X00001113  8804400
 LO BND  X00001114  164824
 UP BND  X00001114  8492200
 MI BND  X00001115
 UP BND  X00001115  0
 MI BND  X00001116
 UP BND  X00001116  0
 MI BND  X00001117
 UP BND  X00001117  0
 MI BND  X00001118
 UP BND  X00001118  0
 LO BND  X00001119  -22845500
 UP BND  X00001119  22845500
 MI BND  X00001120
 UP BND  X00001120  0
 LO BND  X00001121  -115988000
 UP BND  X00001121  115987000
 LO BND  X00001122  15624
 UP BND  X00001122  195304
 MI BND  X00001123
 UP BND  X00001123  0
 LO BND  X00001124  -11534700
 UP BND  X00001124  11534600
 MI BND  X00001125
 UP BND  X00001125  0
 LO BND  X00001126  1230600
 UP BND  X00001126  15382500
 MI BND  X00001127
 UP BND  X00001127  0
 MI BND  X00001128
 UP BND  X00001128  0
 LO BND  X00001129  -88875100
 UP BND  X00001129  88875000
 MI BND  X00001130
 UP BND  X00001130  0
 LO BND  X00001131  -296373000
 UP BND  X00001131  296374000
 MI BND  X00001132
 UP BND  X00001132  0
 LO BND  X00001133  -255803000
 UP BND  X00001133  255802000
 LO BND  X00001134  -22650000
 UP BND  X00001134  22650100
 LO BND  X00001135  310741
 UP BND  X00001135  4766080
 MI BND  X00001136
 UP BND  X00001136  0
 LO BND  X00001137  18146
 UP BND  X00001137  226825
 MI BND  X00001138
 UP BND  X00001138  0
 LO BND  X00001139  -12928200
 UP BND  X00001139  12928300
 MI BND  X00001140
 UP BND  X00001140  0
 LO BND  X00001141  1265540
 UP BND  X00001141  16574400
 LO BND  X00001142  60413
 UP BND  X00001142  755170
 MI BND  X00001143
 UP BND  X00001143  0
 MI BND  X00001144
 UP BND  X00001144  0
 MI BND  X00001145
 UP BND  X00001145  0
 MI BND  X00001146
 UP BND  X00001146  0
 MI BND  X00001147
 UP BND  X00001147  0
 MI BND  X00001148
 UP BND  X00001148  0
 LO BND  X00001149  1265540
 UP BND  X00001149  15819200
 MI BND  X00001150
 UP BND  X00001150  0
 LO BND  X00001151  1161740
 UP BND  X00001151  17523500
 MI BND  X00001152
 UP BND  X00001152  0
 MI BND  X00001153
 UP BND  X00001153  0
 MI BND  X00001154
 UP BND  X00001154  0
 MI BND  X00001155
 UP BND  X00001155  0
 MI BND  X00001156
 UP BND  X00001156  0
 MI BND  X00001157
 UP BND  X00001157  0
 MI BND  X00001158
 UP BND  X00001158  0
 LO BND  X00001159  1161740
 UP BND  X00001159  17523500
 MI BND  X00001160
 UP BND  X00001160  0
 LO BND  X00001161  -882159
 UP BND  X00001161  882160
 MI BND  X00001162
 UP BND  X00001162  0
 MI BND  X00001163
 UP BND  X00001163  0
 LO BND  X00001164  -882159
 UP BND  X00001164  882160
 MI BND  X00001165
 UP BND  X00001165  0
 MI BND  X00001166
 UP BND  X00001166  0
 MI BND  X00001167
 UP BND  X00001167  0
 MI BND  X00001168
 UP BND  X00001168  0
 MI BND  X00001169
 UP BND  X00001169  0
 MI BND  X00001170
 UP BND  X00001170  0
 LO BND  X00001171  137564000
 UP BND  X00001171  2326320000
 MI BND  X00001172
 UP BND  X00001172  0
 MI BND  X00001173
 UP BND  X00001173  0
 MI BND  X00001174
 UP BND  X00001174  0
 MI BND  X00001175
 UP BND  X00001175  0
 MI BND  X00001176
 UP BND  X00001176  0
 MI BND  X00001177
 UP BND  X00001177  0
 MI BND  X00001178
 UP BND  X00001178  0
 LO BND  X00001179  137564000
 UP BND  X00001179  2326320000
 MI BND  X00001180
 UP BND  X00001180  0
 MI BND  X00001181
 UP BND  X00001181  0
 MI BND  X00001182
 UP BND  X00001182  0
 MI BND  X00001183
 UP BND  X00001183  0
 MI BND  X00001184
 UP BND  X00001184  0
 MI BND  X00001185
 UP BND  X00001185  0
 MI BND  X00001186
 UP BND  X00001186  0
 MI BND  X00001187
 UP BND  X00001187  0
 MI BND  X00001188
 UP BND  X00001188  0
 MI BND  X00001189
 UP BND  X00001189  0
 MI BND  X00001190
 UP BND  X00001190  0
 LO BND  X00001191  -74324400000
 UP BND  X00001191  74325000000
 LO BND  X00001192  -81596000
 UP BND  X00001192  81596000
 LO BND  X00001193  -1143480000
 UP BND  X00001193  1143490000
 LO BND  X00001194  -77286900
 UP BND  X00001194  77287000
 LO BND  X00001195  -4963320
 UP BND  X00001195  4963360
 LO BND  X00001196  -62779900000
 UP BND  X00001196  62780000000
 LO BND  X00001197  18146
 UP BND  X00001197  226825
 LO BND  X00001198  57283
 UP BND  X00001198  716040
 LO BND  X00001199  -10236200000
 UP BND  X00001199  10236200000
 MI BND  X00001200
 UP BND  X00001200  0
 LO BND  X00001201  629372000
 UP BND  X00001201  9180300000
 MI BND  X00001202
 UP BND  X00001202  0
 MI BND  X00001203
 UP BND  X00001203  0
 MI BND  X00001204
 UP BND  X00001204  0
 MI BND  X00001205
 UP BND  X00001205  0
 LO BND  X00001206  716892000
 UP BND  X00001206  8961200000
 MI BND  X00001207
 UP BND  X00001207  0
 MI BND  X00001208
 UP BND  X00001208  0
 LO BND  X00001209  6329450
 UP BND  X00001209  219066000
 MI BND  X00001210
 UP BND  X00001210  0
 LO BND  X00001211  -17791700
 UP BND  X00001211  17791700
 MI BND  X00001212
 UP BND  X00001212  0
 MI BND  X00001213
 UP BND  X00001213  0
 LO BND  X00001214  35648
 UP BND  X00001214  445608
 MI BND  X00001215
 UP BND  X00001215  0
 MI BND  X00001216
 UP BND  X00001216  0
 MI BND  X00001217
 UP BND  X00001217  0
 MI BND  X00001218
 UP BND  X00001218  0
 LO BND  X00001219  -17346100
 UP BND  X00001219  17346100
 MI BND  X00001220
 UP BND  X00001220  0
 LO BND  X00001221  -291374000
 UP BND  X00001221  291373000
 MI BND  X00001222
 UP BND  X00001222  0
 LO BND  X00001223  7389390
 UP BND  X00001223  92367000
 MI BND  X00001224
 UP BND  X00001224  0
 MI BND  X00001225
 UP BND  X00001225  0
 MI BND  X00001226
 UP BND  X00001226  0
 MI BND  X00001227
 UP BND  X00001227  0
 MI BND  X00001228
 UP BND  X00001228  0
 LO BND  X00001229  -199006000
 UP BND  X00001229  199006000
 MI BND  X00001230
 UP BND  X00001230  0
 LO BND  X00001231  1594420000
 UP BND  X00001231  55049000000
 LO BND  X00001232  115658
 UP BND  X00001232  1445730
 LO BND  X00001233  26950600
 UP BND  X00001233  336886000
 LO BND  X00001234  94095
 UP BND  X00001234  1449590
 LO BND  X00001235  15781
 UP BND  X00001235  197264
 LO BND  X00001236  4100970000
 UP BND  X00001236  53797000000
 MI BND  X00001237
 UP BND  X00001237  0
 MI BND  X00001238
 UP BND  X00001238  0
 LO BND  X00001239  72424900
 UP BND  X00001239  913300000
 MI BND  X00001240
 UP BND  X00001240  0
 LO BND  X00001241  474654
 UP BND  X00001241  5933100
 MI BND  X00001242
 UP BND  X00001242  0
 LO BND  X00001243  474654
 UP BND  X00001243  5933100
 MI BND  X00001244
 UP BND  X00001244  0
 MI BND  X00001245
 UP BND  X00001245  0
 MI BND  X00001246
 UP BND  X00001246  0
 MI BND  X00001247
 UP BND  X00001247  0
 MI BND  X00001248
 UP BND  X00001248  0
 MI BND  X00001249
 UP BND  X00001249  0
 MI BND  X00001250
 UP BND  X00001250  0
 LO BND  X00001251  -1508330000
 UP BND  X00001251  1508340000
 LO BND  X00001252  -79200200
 UP BND  X00001252  79199000
 LO BND  X00001253  -453563000
 UP BND  X00001253  453564000
 LO BND  X00001254  -39995700
 UP BND  X00001254  39995600
 MI BND  X00001255
 UP BND  X00001255  0
 LO BND  X00001256  1817970
 UP BND  X00001256  22724700
 MI BND  X00001257
 UP BND  X00001257  0
 LO BND  X00001258  57283
 UP BND  X00001258  716040
 LO BND  X00001259  -912142000
 UP BND  X00001259  912130000
 MI BND  X00001260
 UP BND  X00001260  0
 MI BND  X00001261
 UP BND  X00001261  0
 MI BND  X00001262
 UP BND  X00001262  0
 MI BND  X00001263
 UP BND  X00001263  0
 MI BND  X00001264
 UP BND  X00001264  0
 MI BND  X00001265
 UP BND  X00001265  0
 MI BND  X00001266
 UP BND  X00001266  0
 MI BND  X00001267
 UP BND  X00001267  0
 MI BND  X00001268
 UP BND  X00001268  0
 MI BND  X00001269
 UP BND  X00001269  0
 MI BND  X00001270
 UP BND  X00001270  0
 LO BND  X00001271  491913000
 UP BND  X00001271  6148900000
 MI BND  X00001272
 UP BND  X00001272  0
 MI BND  X00001273
 UP BND  X00001273  0
 MI BND  X00001274
 UP BND  X00001274  0
 MI BND  X00001275
 UP BND  X00001275  0
 MI BND  X00001276
 UP BND  X00001276  0
 MI BND  X00001277
 UP BND  X00001277  0
 MI BND  X00001278
 UP BND  X00001278  0
 LO BND  X00001279  491913000
 UP BND  X00001279  6148900000
 MI BND  X00001280
 UP BND  X00001280  0
 LO BND  X00001281  -9550690
 UP BND  X00001281  9550700
 MI BND  X00001282
 UP BND  X00001282  0
 MI BND  X00001283
 UP BND  X00001283  0
 LO BND  X00001284  588674
 UP BND  X00001284  8280400
 MI BND  X00001285
 UP BND  X00001285  0
 MI BND  X00001286
 UP BND  X00001286  0
 MI BND  X00001287
 UP BND  X00001287  0
 MI BND  X00001288
 UP BND  X00001288  0
 LO BND  X00001289  101628
 UP BND  X00001289  1270350
 MI BND  X00001290
 UP BND  X00001290  0
 LO BND  X00001291  -33865600
 UP BND  X00001291  33865700
 LO BND  X00001292  15624
 UP BND  X00001292  195304
 MI BND  X00001293
 UP BND  X00001293  0
 LO BND  X00001294  -6457460
 UP BND  X00001294  6457400
 MI BND  X00001295
 UP BND  X00001295  0
 MI BND  X00001296
 UP BND  X00001296  0
 MI BND  X00001297
 UP BND  X00001297  0
 MI BND  X00001298
 UP BND  X00001298  0
 LO BND  X00001299  -27212900
 UP BND  X00001299  27212900
 MI BND  X00001300
 UP BND  X00001300  0
 LO BND  X00001301  -293132000
 UP BND  X00001301  293132000
 MI BND  X00001302
 UP BND  X00001302  0
 LO BND  X00001303  -254740000
 UP BND  X00001303  254740000
 LO BND  X00001304  -20470800
 UP BND  X00001304  20470900
 LO BND  X00001305  310741
 UP BND  X00001305  4766080
 MI BND  X00001306
 UP BND  X00001306  0
 LO BND  X00001307  18146
 UP BND  X00001307  226825
 MI BND  X00001308
 UP BND  X00001308  0
 LO BND  X00001309  -12928200
 UP BND  X00001309  12928300
 MI BND  X00001310
 UP BND  X00001310  0
 LO BND  X00001311  1265540
 UP BND  X00001311  16574400
 LO BND  X00001312  60413
 UP BND  X00001312  755170
 MI BND  X00001313
 UP BND  X00001313  0
 MI BND  X00001314
 UP BND  X00001314  0
 MI BND  X00001315
 UP BND  X00001315  0
 MI BND  X00001316
 UP BND  X00001316  0
 MI BND  X00001317
 UP BND  X00001317  0
 MI BND  X00001318
 UP BND  X00001318  0
 LO BND  X00001319  1265540
 UP BND  X00001319  15819200
 MI BND  X00001320
 UP BND  X00001320  0
 LO BND  X00001321  1161740
 UP BND  X00001321  17523500
 MI BND  X00001322
 UP BND  X00001322  0
 MI BND  X00001323
 UP BND  X00001323  0
 MI BND  X00001324
 UP BND  X00001324  0
 MI BND  X00001325
 UP BND  X00001325  0
 MI BND  X00001326
 UP BND  X00001326  0
 MI BND  X00001327
 UP BND  X00001327  0
 MI BND  X00001328
 UP BND  X00001328  0
 LO BND  X00001329  1161740
 UP BND  X00001329  17523500
 MI BND  X00001330
 UP BND  X00001330  0
 LO BND  X00001331  15003
 UP BND  X00001331  187537
 MI BND  X00001332
 UP BND  X00001332  0
 MI BND  X00001333
 UP BND  X00001333  0
 LO BND  X00001334  15003
 UP BND  X00001334  187537
 MI BND  X00001335
 UP BND  X00001335  0
 MI BND  X00001336
 UP BND  X00001336  0
 MI BND  X00001337
 UP BND  X00001337  0
 MI BND  X00001338
 UP BND  X00001338  0
 MI BND  X00001339
 UP BND  X00001339  0
 MI BND  X00001340
 UP BND  X00001340  0
 LO BND  X00001341  140122000
 UP BND  X00001341  1751680000
 MI BND  X00001342
 UP BND  X00001342  0
 MI BND  X00001343
 UP BND  X00001343  0
 MI BND  X00001344
 UP BND  X00001344  0
 MI BND  X00001345
 UP BND  X00001345  0
 MI BND  X00001346
 UP BND  X00001346  0
 MI BND  X00001347
 UP BND  X00001347  0
 MI BND  X00001348
 UP BND  X00001348  0
 LO BND  X00001349  140122000
 UP BND  X00001349  1751680000
 MI BND  X00001350
 UP BND  X00001350  0
 MI BND  X00001351
 UP BND  X00001351  0
 MI BND  X00001352
 UP BND  X00001352  0
 MI BND  X00001353
 UP BND  X00001353  0
 MI BND  X00001354
 UP BND  X00001354  0
 MI BND  X00001355
 UP BND  X00001355  0
 MI BND  X00001356
 UP BND  X00001356  0
 MI BND  X00001357
 UP BND  X00001357  0
 MI BND  X00001358
 UP BND  X00001358  0
 MI BND  X00001359
 UP BND  X00001359  0
 MI BND  X00001360
 UP BND  X00001360  0
 LO BND  X00001361  352110000
 UP BND  X00001361  7970300000
 MI BND  X00001362
 UP BND  X00001362  0
 MI BND  X00001363
 UP BND  X00001363  0
 LO BND  X00001364  94095
 UP BND  X00001364  1176200
 MI BND  X00001365
 UP BND  X00001365  0
 MI BND  X00001366
 UP BND  X00001366  0
 MI BND  X00001367
 UP BND  X00001367  0
 MI BND  X00001368
 UP BND  X00001368  0
 LO BND  X00001369  354462000
 UP BND  X00001369  7969200000
 MI BND  X00001370
 UP BND  X00001370  0
 MI BND  X00001371
 UP BND  X00001371  0
 MI BND  X00001372
 UP BND  X00001372  0
 MI BND  X00001373
 UP BND  X00001373  0
 MI BND  X00001374
 UP BND  X00001374  0
 MI BND  X00001375
 UP BND  X00001375  0
 MI BND  X00001376
 UP BND  X00001376  0
 MI BND  X00001377
 UP BND  X00001377  0
 MI BND  X00001378
 UP BND  X00001378  0
 MI BND  X00001379
 UP BND  X00001379  0
 MI BND  X00001380
 UP BND  X00001380  0
 MI BND  X00001381
 UP BND  X00001381  0
 MI BND  X00001382
 UP BND  X00001382  0
 MI BND  X00001383
 UP BND  X00001383  0
 MI BND  X00001384
 UP BND  X00001384  0
 MI BND  X00001385
 UP BND  X00001385  0
 MI BND  X00001386
 UP BND  X00001386  0
 MI BND  X00001387
 UP BND  X00001387  0
 MI BND  X00001388
 UP BND  X00001388  0
 MI BND  X00001389
 UP BND  X00001389  0
 MI BND  X00001390
 UP BND  X00001390  0
 LO BND  X00001391  5498030
 UP BND  X00001391  68725000
 MI BND  X00001392
 UP BND  X00001392  0
 MI BND  X00001393
 UP BND  X00001393  0
 MI BND  X00001394
 UP BND  X00001394  0
 MI BND  X00001395
 UP BND  X00001395  0
 MI BND  X00001396
 UP BND  X00001396  0
 MI BND  X00001397
 UP BND  X00001397  0
 MI BND  X00001398
 UP BND  X00001398  0
 LO BND  X00001399  5498030
 UP BND  X00001399  68725000
 MI BND  X00001400
 UP BND  X00001400  0
 LO BND  X00001401  94095
 UP BND  X00001401  1176200
 MI BND  X00001402
 UP BND  X00001402  0
 MI BND  X00001403
 UP BND  X00001403  0
 LO BND  X00001404  94095
 UP BND  X00001404  1176200
 MI BND  X00001405
 UP BND  X00001405  0
 MI BND  X00001406
 UP BND  X00001406  0
 MI BND  X00001407
 UP BND  X00001407  0
 MI BND  X00001408
 UP BND  X00001408  0
 MI BND  X00001409
 UP BND  X00001409  0
 MI BND  X00001410
 UP BND  X00001410  0
 MI BND  X00001411
 UP BND  X00001411  0
 MI BND  X00001412
 UP BND  X00001412  0
 MI BND  X00001413
 UP BND  X00001413  0
 MI BND  X00001414
 UP BND  X00001414  0
 MI BND  X00001415
 UP BND  X00001415  0
 MI BND  X00001416
 UP BND  X00001416  0
 MI BND  X00001417
 UP BND  X00001417  0
 MI BND  X00001418
 UP BND  X00001418  0
 MI BND  X00001419
 UP BND  X00001419  0
 MI BND  X00001420
 UP BND  X00001420  0
 MI BND  X00001421
 UP BND  X00001421  0
 MI BND  X00001422
 UP BND  X00001422  0
 MI BND  X00001423
 UP BND  X00001423  0
 MI BND  X00001424
 UP BND  X00001424  0
 MI BND  X00001425
 UP BND  X00001425  0
 MI BND  X00001426
 UP BND  X00001426  0
 MI BND  X00001427
 UP BND  X00001427  0
 MI BND  X00001428
 UP BND  X00001428  0
 MI BND  X00001429
 UP BND  X00001429  0
 MI BND  X00001430
 UP BND  X00001430  0
 MI BND  X00001431
 UP BND  X00001431  0
 MI BND  X00001432
 UP BND  X00001432  0
 MI BND  X00001433
 UP BND  X00001433  0
 MI BND  X00001434
 UP BND  X00001434  0
 MI BND  X00001435
 UP BND  X00001435  0
 MI BND  X00001436
 UP BND  X00001436  0
 MI BND  X00001437
 UP BND  X00001437  0
 MI BND  X00001438
 UP BND  X00001438  0
 MI BND  X00001439
 UP BND  X00001439  0
 MI BND  X00001440
 UP BND  X00001440  0
 LO BND  X00001441  491913000
 UP BND  X00001441  6148900000
 MI BND  X00001442
 UP BND  X00001442  0
 MI BND  X00001443
 UP BND  X00001443  0
 MI BND  X00001444
 UP BND  X00001444  0
 MI BND  X00001445
 UP BND  X00001445  0
 MI BND  X00001446
 UP BND  X00001446  0
 MI BND  X00001447
 UP BND  X00001447  0
 MI BND  X00001448
 UP BND  X00001448  0
 LO BND  X00001449  491913000
 UP BND  X00001449  6148900000
 MI BND  X00001450
 UP BND  X00001450  0
 MI BND  X00001451
 UP BND  X00001451  0
 MI BND  X00001452
 UP BND  X00001452  0
 MI BND  X00001453
 UP BND  X00001453  0
 MI BND  X00001454
 UP BND  X00001454  0
 MI BND  X00001455
 UP BND  X00001455  0
 MI BND  X00001456
 UP BND  X00001456  0
 MI BND  X00001457
 UP BND  X00001457  0
 MI BND  X00001458
 UP BND  X00001458  0
 MI BND  X00001459
 UP BND  X00001459  0
 MI BND  X00001460
 UP BND  X00001460  0
 MI BND  X00001461
 UP BND  X00001461  0
 MI BND  X00001462
 UP BND  X00001462  0
 MI BND  X00001463
 UP BND  X00001463  0
 MI BND  X00001464
 UP BND  X00001464  0
 MI BND  X00001465
 UP BND  X00001465  0
 MI BND  X00001466
 UP BND  X00001466  0
 MI BND  X00001467
 UP BND  X00001467  0
 MI BND  X00001468
 UP BND  X00001468  0
 MI BND  X00001469
 UP BND  X00001469  0
 MI BND  X00001470
 UP BND  X00001470  0
 MI BND  X00001471
 UP BND  X00001471  0
 MI BND  X00001472
 UP BND  X00001472  0
 MI BND  X00001473
 UP BND  X00001473  0
 MI BND  X00001474
 UP BND  X00001474  0
 MI BND  X00001475
 UP BND  X00001475  0
 MI BND  X00001476
 UP BND  X00001476  0
 MI BND  X00001477
 UP BND  X00001477  0
 MI BND  X00001478
 UP BND  X00001478  0
 MI BND  X00001479
 UP BND  X00001479  0
 MI BND  X00001480
 UP BND  X00001480  0
 MI BND  X00001481
 UP BND  X00001481  0
 MI BND  X00001482
 UP BND  X00001482  0
 MI BND  X00001483
 UP BND  X00001483  0
 MI BND  X00001484
 UP BND  X00001484  0
 MI BND  X00001485
 UP BND  X00001485  0
 MI BND  X00001486
 UP BND  X00001486  0
 MI BND  X00001487
 UP BND  X00001487  0
 MI BND  X00001488
 UP BND  X00001488  0
 MI BND  X00001489
 UP BND  X00001489  0
 MI BND  X00001490
 UP BND  X00001490  0
 MI BND  X00001491
 UP BND  X00001491  0
 MI BND  X00001492
 UP BND  X00001492  0
 MI BND  X00001493
 UP BND  X00001493  0
 MI BND  X00001494
 UP BND  X00001494  0
 MI BND  X00001495
 UP BND  X00001495  0
 MI BND  X00001496
 UP BND  X00001496  0
 MI BND  X00001497
 UP BND  X00001497  0
 MI BND  X00001498
 UP BND  X00001498  0
 MI BND  X00001499
 UP BND  X00001499  0
 MI BND  X00001500
 UP BND  X00001500  0
 MI BND  X00001501
 UP BND  X00001501  0
 MI BND  X00001502
 UP BND  X00001502  0
 MI BND  X00001503
 UP BND  X00001503  0
 MI BND  X00001504
 UP BND  X00001504  0
 MI BND  X00001505
 UP BND  X00001505  0
 MI BND  X00001506
 UP BND  X00001506  0
 MI BND  X00001507
 UP BND  X00001507  0
 MI BND  X00001508
 UP BND  X00001508  0
 MI BND  X00001509
 UP BND  X00001509  0
 MI BND  X00001510
 UP BND  X00001510  0
 LO BND  X00001511  140122000
 UP BND  X00001511  1751520000
 MI BND  X00001512
 UP BND  X00001512  0
 MI BND  X00001513
 UP BND  X00001513  0
 MI BND  X00001514
 UP BND  X00001514  0
 MI BND  X00001515
 UP BND  X00001515  0
 MI BND  X00001516
 UP BND  X00001516  0
 MI BND  X00001517
 UP BND  X00001517  0
 MI BND  X00001518
 UP BND  X00001518  0
 LO BND  X00001519  140122000
 UP BND  X00001519  1751520000
 MI BND  X00001520
 UP BND  X00001520  0
 MI BND  X00001521
 UP BND  X00001521  0
 MI BND  X00001522
 UP BND  X00001522  0
 MI BND  X00001523
 UP BND  X00001523  0
 MI BND  X00001524
 UP BND  X00001524  0
 MI BND  X00001525
 UP BND  X00001525  0
 MI BND  X00001526
 UP BND  X00001526  0
 MI BND  X00001527
 UP BND  X00001527  0
 MI BND  X00001528
 UP BND  X00001528  0
 MI BND  X00001529
 UP BND  X00001529  0
 MI BND  X00001530
 UP BND  X00001530  0
 LO BND  X00001531  -64300300000
 UP BND  X00001531  64301000000
 LO BND  X00001532  115658
 UP BND  X00001532  1445730
 LO BND  X00001533  26950600
 UP BND  X00001533  336886000
 LO BND  X00001534  -811542
 UP BND  X00001534  811530
 LO BND  X00001535  310741
 UP BND  X00001535  4081550
 LO BND  X00001536  -62757600000
 UP BND  X00001536  62757000000
 MI BND  X00001537
 UP BND  X00001537  0
 MI BND  X00001538
 UP BND  X00001538  0
 LO BND  X00001539  -1200110000
 UP BND  X00001539  1200100000
 MI BND  X00001540
 UP BND  X00001540  0
 LO BND  X00001541  629372000
 UP BND  X00001541  9180300000
 MI BND  X00001542
 UP BND  X00001542  0
 MI BND  X00001543
 UP BND  X00001543  0
 MI BND  X00001544
 UP BND  X00001544  0
 MI BND  X00001545
 UP BND  X00001545  0
 LO BND  X00001546  716892000
 UP BND  X00001546  8961200000
 MI BND  X00001547
 UP BND  X00001547  0
 MI BND  X00001548
 UP BND  X00001548  0
 LO BND  X00001549  6329450
 UP BND  X00001549  219066000
 MI BND  X00001550
 UP BND  X00001550  0
 MI BND  X00001551
 UP BND  X00001551  0
 MI BND  X00001552
 UP BND  X00001552  0
 MI BND  X00001553
 UP BND  X00001553  0
 MI BND  X00001554
 UP BND  X00001554  0
 MI BND  X00001555
 UP BND  X00001555  0
 MI BND  X00001556
 UP BND  X00001556  0
 MI BND  X00001557
 UP BND  X00001557  0
 MI BND  X00001558
 UP BND  X00001558  0
 MI BND  X00001559
 UP BND  X00001559  0
 MI BND  X00001560
 UP BND  X00001560  0
 LO BND  X00001561  3279000
 UP BND  X00001561  67737000
 MI BND  X00001562
 UP BND  X00001562  0
 MI BND  X00001563
 UP BND  X00001563  0
 MI BND  X00001564
 UP BND  X00001564  0
 MI BND  X00001565
 UP BND  X00001565  0
 MI BND  X00001566
 UP BND  X00001566  0
 MI BND  X00001567
 UP BND  X00001567  0
 MI BND  X00001568
 UP BND  X00001568  0
 LO BND  X00001569  3279000
 UP BND  X00001569  67737000
 MI BND  X00001570
 UP BND  X00001570  0
 LO BND  X00001571  1596770000
 UP BND  X00001571  55048000000
 LO BND  X00001572  115658
 UP BND  X00001572  1445730
 LO BND  X00001573  26950600
 UP BND  X00001573  336886000
 LO BND  X00001574  21872
 UP BND  X00001574  273403
 LO BND  X00001575  15781
 UP BND  X00001575  197264
 LO BND  X00001576  4100970000
 UP BND  X00001576  53797000000
 MI BND  X00001577
 UP BND  X00001577  0
 MI BND  X00001578
 UP BND  X00001578  0
 LO BND  X00001579  72424900
 UP BND  X00001579  913300000
 MI BND  X00001580
 UP BND  X00001580  0
 MI BND  X00001581
 UP BND  X00001581  0
 MI BND  X00001582
 UP BND  X00001582  0
 MI BND  X00001583
 UP BND  X00001583  0
 MI BND  X00001584
 UP BND  X00001584  0
 MI BND  X00001585
 UP BND  X00001585  0
 MI BND  X00001586
 UP BND  X00001586  0
 MI BND  X00001587
 UP BND  X00001587  0
 MI BND  X00001588
 UP BND  X00001588  0
 MI BND  X00001589
 UP BND  X00001589  0
 MI BND  X00001590
 UP BND  X00001590  0
 MI BND  X00001591
 UP BND  X00001591  0
 MI BND  X00001592
 UP BND  X00001592  0
 MI BND  X00001593
 UP BND  X00001593  0
 MI BND  X00001594
 UP BND  X00001594  0
 MI BND  X00001595
 UP BND  X00001595  0
 MI BND  X00001596
 UP BND  X00001596  0
 MI BND  X00001597
 UP BND  X00001597  0
 MI BND  X00001598
 UP BND  X00001598  0
 MI BND  X00001599
 UP BND  X00001599  0
 MI BND  X00001600
 UP BND  X00001600  0
 MI BND  X00001601
 UP BND  X00001601  0
 MI BND  X00001602
 UP BND  X00001602  0
 MI BND  X00001603
 UP BND  X00001603  0
 MI BND  X00001604
 UP BND  X00001604  0
 MI BND  X00001605
 UP BND  X00001605  0
 MI BND  X00001606
 UP BND  X00001606  0
 MI BND  X00001607
 UP BND  X00001607  0
 MI BND  X00001608
 UP BND  X00001608  0
 MI BND  X00001609
 UP BND  X00001609  0
 MI BND  X00001610
 UP BND  X00001610  0
 MI BND  X00001611
 UP BND  X00001611  0
 MI BND  X00001612
 UP BND  X00001612  0
 MI BND  X00001613
 UP BND  X00001613  0
 MI BND  X00001614
 UP BND  X00001614  0
 MI BND  X00001615
 UP BND  X00001615  0
 MI BND  X00001616
 UP BND  X00001616  0
 MI BND  X00001617
 UP BND  X00001617  0
 MI BND  X00001618
 UP BND  X00001618  0
 MI BND  X00001619
 UP BND  X00001619  0
 MI BND  X00001620
 UP BND  X00001620  0
 MI BND  X00001621
 UP BND  X00001621  0
 MI BND  X00001622
 UP BND  X00001622  0
 MI BND  X00001623
 UP BND  X00001623  0
 MI BND  X00001624
 UP BND  X00001624  0
 MI BND  X00001625
 UP BND  X00001625  0
 MI BND  X00001626
 UP BND  X00001626  0
 MI BND  X00001627
 UP BND  X00001627  0
 MI BND  X00001628
 UP BND  X00001628  0
 MI BND  X00001629
 UP BND  X00001629  0
 MI BND  X00001630
 UP BND  X00001630  0
 LO BND  X00001631  28048
 UP BND  X00001631  350603
 MI BND  X00001632
 UP BND  X00001632  0
 MI BND  X00001633
 UP BND  X00001633  0
 LO BND  X00001634  28048
 UP BND  X00001634  350603
 MI BND  X00001635
 UP BND  X00001635  0
 MI BND  X00001636
 UP BND  X00001636  0
 MI BND  X00001637
 UP BND  X00001637  0
 MI BND  X00001638
 UP BND  X00001638  0
 MI BND  X00001639
 UP BND  X00001639  0
 MI BND  X00001640
 UP BND  X00001640  0
 LO BND  X00001641  310741
 UP BND  X00001641  3884280
 MI BND  X00001642
 UP BND  X00001642  0
 MI BND  X00001643
 UP BND  X00001643  0
 MI BND  X00001644
 UP BND  X00001644  0
 LO BND  X00001645  310741
 UP BND  X00001645  3884280
 MI BND  X00001646
 UP BND  X00001646  0
 MI BND  X00001647
 UP BND  X00001647  0
 MI BND  X00001648
 UP BND  X00001648  0
 MI BND  X00001649
 UP BND  X00001649  0
 MI BND  X00001650
 UP BND  X00001650  0
 MI BND  X00001651
 UP BND  X00001651  0
 MI BND  X00001652
 UP BND  X00001652  0
 MI BND  X00001653
 UP BND  X00001653  0
 MI BND  X00001654
 UP BND  X00001654  0
 MI BND  X00001655
 UP BND  X00001655  0
 MI BND  X00001656
 UP BND  X00001656  0
 MI BND  X00001657
 UP BND  X00001657  0
 MI BND  X00001658
 UP BND  X00001658  0
 MI BND  X00001659
 UP BND  X00001659  0
 MI BND  X00001660
 UP BND  X00001660  0
 MI BND  X00001661
 UP BND  X00001661  0
 MI BND  X00001662
 UP BND  X00001662  0
 MI BND  X00001663
 UP BND  X00001663  0
 MI BND  X00001664
 UP BND  X00001664  0
 MI BND  X00001665
 UP BND  X00001665  0
 MI BND  X00001666
 UP BND  X00001666  0
 MI BND  X00001667
 UP BND  X00001667  0
 MI BND  X00001668
 UP BND  X00001668  0
 MI BND  X00001669
 UP BND  X00001669  0
 MI BND  X00001670
 UP BND  X00001670  0
 LO BND  X00001671  15003
 UP BND  X00001671  187537
 MI BND  X00001672
 UP BND  X00001672  0
 MI BND  X00001673
 UP BND  X00001673  0
 LO BND  X00001674  15003
 UP BND  X00001674  187537
 MI BND  X00001675
 UP BND  X00001675  0
 MI BND  X00001676
 UP BND  X00001676  0
 MI BND  X00001677
 UP BND  X00001677  0
 MI BND  X00001678
 UP BND  X00001678  0
 MI BND  X00001679
 UP BND  X00001679  0
 MI BND  X00001680
 UP BND  X00001680  0
 MI BND  X00001681
 UP BND  X00001681  0
 MI BND  X00001682
 UP BND  X00001682  0
 MI BND  X00001683
 UP BND  X00001683  0
 MI BND  X00001684
 UP BND  X00001684  0
 MI BND  X00001685
 UP BND  X00001685  0
 MI BND  X00001686
 UP BND  X00001686  0
 MI BND  X00001687
 UP BND  X00001687  0
 MI BND  X00001688
 UP BND  X00001688  0
 MI BND  X00001689
 UP BND  X00001689  0
 MI BND  X00001690
 UP BND  X00001690  0
 MI BND  X00001691
 UP BND  X00001691  0
 MI BND  X00001692
 UP BND  X00001692  0
 MI BND  X00001693
 UP BND  X00001693  0
 MI BND  X00001694
 UP BND  X00001694  0
 MI BND  X00001695
 UP BND  X00001695  0
 MI BND  X00001696
 UP BND  X00001696  0
 MI BND  X00001697
 UP BND  X00001697  0
 MI BND  X00001698
 UP BND  X00001698  0
 MI BND  X00001699
 UP BND  X00001699  0
 MI BND  X00001700
 UP BND  X00001700  0
 LO BND  X00001701  -735401
 UP BND  X00001701  735400
 MI BND  X00001702
 UP BND  X00001702  0
 MI BND  X00001703
 UP BND  X00001703  0
 LO BND  X00001704  28048
 UP BND  X00001704  538140
 LO BND  X00001705  15781
 UP BND  X00001705  197264
 MI BND  X00001706
 UP BND  X00001706  0
 MI BND  X00001707
 UP BND  X00001707  0
 MI BND  X00001708
 UP BND  X00001708  0
 MI BND  X00001709
 UP BND  X00001709  0
 MI BND  X00001710
 UP BND  X00001710  0
 MI BND  X00001711
 UP BND  X00001711  0
 MI BND  X00001712
 UP BND  X00001712  0
 MI BND  X00001713
 UP BND  X00001713  0
 MI BND  X00001714
 UP BND  X00001714  0
 MI BND  X00001715
 UP BND  X00001715  0
 MI BND  X00001716
 UP BND  X00001716  0
 MI BND  X00001717
 UP BND  X00001717  0
 MI BND  X00001718
 UP BND  X00001718  0
 MI BND  X00001719
 UP BND  X00001719  0
 MI BND  X00001720
 UP BND  X00001720  0
 MI BND  X00001721
 UP BND  X00001721  0
 MI BND  X00001722
 UP BND  X00001722  0
 MI BND  X00001723
 UP BND  X00001723  0
 MI BND  X00001724
 UP BND  X00001724  0
 MI BND  X00001725
 UP BND  X00001725  0
 MI BND  X00001726
 UP BND  X00001726  0
 MI BND  X00001727
 UP BND  X00001727  0
 MI BND  X00001728
 UP BND  X00001728  0
 MI BND  X00001729
 UP BND  X00001729  0
 MI BND  X00001730
 UP BND  X00001730  0
 MI BND  X00001731
 UP BND  X00001731  0
 MI BND  X00001732
 UP BND  X00001732  0
 MI BND  X00001733
 UP BND  X00001733  0
 MI BND  X00001734
 UP BND  X00001734  0
 MI BND  X00001735
 UP BND  X00001735  0
 MI BND  X00001736
 UP BND  X00001736  0
 MI BND  X00001737
 UP BND  X00001737  0
 MI BND  X00001738
 UP BND  X00001738  0
 MI BND  X00001739
 UP BND  X00001739  0
 MI BND  X00001740
 UP BND  X00001740  0
 LO BND  X00001741  15781
 UP BND  X00001741  197264
 MI BND  X00001742
 UP BND  X00001742  0
 MI BND  X00001743
 UP BND  X00001743  0
 MI BND  X00001744
 UP BND  X00001744  0
 LO BND  X00001745  15781
 UP BND  X00001745  197264
 MI BND  X00001746
 UP BND  X00001746  0
 MI BND  X00001747
 UP BND  X00001747  0
 MI BND  X00001748
 UP BND  X00001748  0
 MI BND  X00001749
 UP BND  X00001749  0
 MI BND  X00001750
 UP BND  X00001750  0
 MI BND  X00001751
 UP BND  X00001751  0
 MI BND  X00001752
 UP BND  X00001752  0
 MI BND  X00001753
 UP BND  X00001753  0
 MI BND  X00001754
 UP BND  X00001754  0
 MI BND  X00001755
 UP BND  X00001755  0
 MI BND  X00001756
 UP BND  X00001756  0
 MI BND  X00001757
 UP BND  X00001757  0
 MI BND  X00001758
 UP BND  X00001758  0
 MI BND  X00001759
 UP BND  X00001759  0
 MI BND  X00001760
 UP BND  X00001760  0
 MI BND  X00001761
 UP BND  X00001761  0
 MI BND  X00001762
 UP BND  X00001762  0
 MI BND  X00001763
 UP BND  X00001763  0
 MI BND  X00001764
 UP BND  X00001764  0
 MI BND  X00001765
 UP BND  X00001765  0
 MI BND  X00001766
 UP BND  X00001766  0
 MI BND  X00001767
 UP BND  X00001767  0
 MI BND  X00001768
 UP BND  X00001768  0
 MI BND  X00001769
 UP BND  X00001769  0
 MI BND  X00001770
 UP BND  X00001770  0
 MI BND  X00001771
 UP BND  X00001771  0
 MI BND  X00001772
 UP BND  X00001772  0
 MI BND  X00001773
 UP BND  X00001773  0
 MI BND  X00001774
 UP BND  X00001774  0
 MI BND  X00001775
 UP BND  X00001775  0
 MI BND  X00001776
 UP BND  X00001776  0
 MI BND  X00001777
 UP BND  X00001777  0
 MI BND  X00001778
 UP BND  X00001778  0
 MI BND  X00001779
 UP BND  X00001779  0
 MI BND  X00001780
 UP BND  X00001780  0
 MI BND  X00001781
 UP BND  X00001781  0
 MI BND  X00001782
 UP BND  X00001782  0
 MI BND  X00001783
 UP BND  X00001783  0
 MI BND  X00001784
 UP BND  X00001784  0
 MI BND  X00001785
 UP BND  X00001785  0
 MI BND  X00001786
 UP BND  X00001786  0
 MI BND  X00001787
 UP BND  X00001787  0
 MI BND  X00001788
 UP BND  X00001788  0
 MI BND  X00001789
 UP BND  X00001789  0
 MI BND  X00001790
 UP BND  X00001790  0
 MI BND  X00001791
 UP BND  X00001791  0
 MI BND  X00001792
 UP BND  X00001792  0
 MI BND  X00001793
 UP BND  X00001793  0
 MI BND  X00001794
 UP BND  X00001794  0
 MI BND  X00001795
 UP BND  X00001795  0
 MI BND  X00001796
 UP BND  X00001796  0
 MI BND  X00001797
 UP BND  X00001797  0
 MI BND  X00001798
 UP BND  X00001798  0
 MI BND  X00001799
 UP BND  X00001799  0
 MI BND  X00001800
 UP BND  X00001800  0
 LO BND  X00001801  28048
 UP BND  X00001801  350603
 MI BND  X00001802
 UP BND  X00001802  0
 MI BND  X00001803
 UP BND  X00001803  0
 LO BND  X00001804  28048
 UP BND  X00001804  350603
 MI BND  X00001805
 UP BND  X00001805  0
 MI BND  X00001806
 UP BND  X00001806  0
 MI BND  X00001807
 UP BND  X00001807  0
 MI BND  X00001808
 UP BND  X00001808  0
 MI BND  X00001809
 UP BND  X00001809  0
 MI BND  X00001810
 UP BND  X00001810  0
 MI BND  X00001811
 UP BND  X00001811  0
 MI BND  X00001812
 UP BND  X00001812  0
 MI BND  X00001813
 UP BND  X00001813  0
 MI BND  X00001814
 UP BND  X00001814  0
 MI BND  X00001815
 UP BND  X00001815  0
 MI BND  X00001816
 UP BND  X00001816  0
 MI BND  X00001817
 UP BND  X00001817  0
 MI BND  X00001818
 UP BND  X00001818  0
 MI BND  X00001819
 UP BND  X00001819  0
 MI BND  X00001820
 UP BND  X00001820  0
 MI BND  X00001821
 UP BND  X00001821  0
 MI BND  X00001822
 UP BND  X00001822  0
 MI BND  X00001823
 UP BND  X00001823  0
 MI BND  X00001824
 UP BND  X00001824  0
 MI BND  X00001825
 UP BND  X00001825  0
 MI BND  X00001826
 UP BND  X00001826  0
 MI BND  X00001827
 UP BND  X00001827  0
 MI BND  X00001828
 UP BND  X00001828  0
 MI BND  X00001829
 UP BND  X00001829  0
 MI BND  X00001830
 UP BND  X00001830  0
 MI BND  X00001831
 UP BND  X00001831  0
 MI BND  X00001832
 UP BND  X00001832  0
 MI BND  X00001833
 UP BND  X00001833  0
 MI BND  X00001834
 UP BND  X00001834  0
 MI BND  X00001835
 UP BND  X00001835  0
 MI BND  X00001836
 UP BND  X00001836  0
 MI BND  X00001837
 UP BND  X00001837  0
 MI BND  X00001838
 UP BND  X00001838  0
 MI BND  X00001839
 UP BND  X00001839  0
 MI BND  X00001840
 UP BND  X00001840  0
 LO BND  X00001841  15003
 UP BND  X00001841  187537
 MI BND  X00001842
 UP BND  X00001842  0
 MI BND  X00001843
 UP BND  X00001843  0
 LO BND  X00001844  15003
 UP BND  X00001844  187537
 MI BND  X00001845
 UP BND  X00001845  0
 MI BND  X00001846
 UP BND  X00001846  0
 MI BND  X00001847
 UP BND  X00001847  0
 MI BND  X00001848
 UP BND  X00001848  0
 MI BND  X00001849
 UP BND  X00001849  0
 MI BND  X00001850
 UP BND  X00001850  0
 MI BND  X00001851
 UP BND  X00001851  0
 MI BND  X00001852
 UP BND  X00001852  0
 MI BND  X00001853
 UP BND  X00001853  0
 MI BND  X00001854
 UP BND  X00001854  0
 MI BND  X00001855
 UP BND  X00001855  0
 MI BND  X00001856
 UP BND  X00001856  0
 MI BND  X00001857
 UP BND  X00001857  0
 MI BND  X00001858
 UP BND  X00001858  0
 MI BND  X00001859
 UP BND  X00001859  0
 MI BND  X00001860
 UP BND  X00001860  0
 MI BND  X00001861
 UP BND  X00001861  0
 MI BND  X00001862
 UP BND  X00001862  0
 MI BND  X00001863
 UP BND  X00001863  0
 MI BND  X00001864
 UP BND  X00001864  0
 MI BND  X00001865
 UP BND  X00001865  0
 MI BND  X00001866
 UP BND  X00001866  0
 MI BND  X00001867
 UP BND  X00001867  0
 MI BND  X00001868
 UP BND  X00001868  0
 MI BND  X00001869
 UP BND  X00001869  0
 MI BND  X00001870
 UP BND  X00001870  0
 LO BND  X00001871  -64300000000
 UP BND  X00001871  64300000000
 LO BND  X00001872  115658
 UP BND  X00001872  1445730
 LO BND  X00001873  26950600
 UP BND  X00001873  336886000
 LO BND  X00001874  21872
 UP BND  X00001874  273403
 LO BND  X00001875  310741
 UP BND  X00001875  3884280
 LO BND  X00001876  -62757600000
 UP BND  X00001876  62757000000
 MI BND  X00001877
 UP BND  X00001877  0
 MI BND  X00001878
 UP BND  X00001878  0
 LO BND  X00001879  -1200110000
 UP BND  X00001879  1200100000
 MI BND  X00001880
 UP BND  X00001880  0
 LO BND  X00001881  629372000
 UP BND  X00001881  9180300000
 MI BND  X00001882
 UP BND  X00001882  0
 MI BND  X00001883
 UP BND  X00001883  0
 MI BND  X00001884
 UP BND  X00001884  0
 MI BND  X00001885
 UP BND  X00001885  0
 LO BND  X00001886  716892000
 UP BND  X00001886  8961200000
 MI BND  X00001887
 UP BND  X00001887  0
 MI BND  X00001888
 UP BND  X00001888  0
 LO BND  X00001889  6329450
 UP BND  X00001889  219066000
 MI BND  X00001890
 UP BND  X00001890  0
 MI BND  X00001891
 UP BND  X00001891  0
 MI BND  X00001892
 UP BND  X00001892  0
 MI BND  X00001893
 UP BND  X00001893  0
 MI BND  X00001894
 UP BND  X00001894  0
 MI BND  X00001895
 UP BND  X00001895  0
 MI BND  X00001896
 UP BND  X00001896  0
 MI BND  X00001897
 UP BND  X00001897  0
 MI BND  X00001898
 UP BND  X00001898  0
 MI BND  X00001899
 UP BND  X00001899  0
 MI BND  X00001900
 UP BND  X00001900  0
 LO BND  X00001901  3279000
 UP BND  X00001901  67737000
 MI BND  X00001902
 UP BND  X00001902  0
 MI BND  X00001903
 UP BND  X00001903  0
 MI BND  X00001904
 UP BND  X00001904  0
 MI BND  X00001905
 UP BND  X00001905  0
 MI BND  X00001906
 UP BND  X00001906  0
 MI BND  X00001907
 UP BND  X00001907  0
 MI BND  X00001908
 UP BND  X00001908  0
 LO BND  X00001909  3279000
 UP BND  X00001909  67737000
 MI BND  X00001910
 UP BND  X00001910  0
 LO BND  X00001911  1597170000
 UP BND  X00001911  55048000000
 LO BND  X00001912  115658
 UP BND  X00001912  1445730
 LO BND  X00001913  26950600
 UP BND  X00001913  336886000
 LO BND  X00001914  21872
 UP BND  X00001914  273403
 MI BND  X00001915
 UP BND  X00001915  0
 LO BND  X00001916  4100970000
 UP BND  X00001916  53797000000
 MI BND  X00001917
 UP BND  X00001917  0
 MI BND  X00001918
 UP BND  X00001918  0
 LO BND  X00001919  72424900
 UP BND  X00001919  913300000
 MI BND  X00001920
 UP BND  X00001920  0
 MI BND  X00001921
 UP BND  X00001921  0
 MI BND  X00001922
 UP BND  X00001922  0
 MI BND  X00001923
 UP BND  X00001923  0
 MI BND  X00001924
 UP BND  X00001924  0
 MI BND  X00001925
 UP BND  X00001925  0
 MI BND  X00001926
 UP BND  X00001926  0
 MI BND  X00001927
 UP BND  X00001927  0
 MI BND  X00001928
 UP BND  X00001928  0
 MI BND  X00001929
 UP BND  X00001929  0
 MI BND  X00001930
 UP BND  X00001930  0
 MI BND  X00001931
 UP BND  X00001931  0
 MI BND  X00001932
 UP BND  X00001932  0
 MI BND  X00001933
 UP BND  X00001933  0
 MI BND  X00001934
 UP BND  X00001934  0
 MI BND  X00001935
 UP BND  X00001935  0
 MI BND  X00001936
 UP BND  X00001936  0
 MI BND  X00001937
 UP BND  X00001937  0
 MI BND  X00001938
 UP BND  X00001938  0
 MI BND  X00001939
 UP BND  X00001939  0
 MI BND  X00001940
 UP BND  X00001940  0
 MI BND  X00001941
 UP BND  X00001941  0
 MI BND  X00001942
 UP BND  X00001942  0
 MI BND  X00001943
 UP BND  X00001943  0
 MI BND  X00001944
 UP BND  X00001944  0
 MI BND  X00001945
 UP BND  X00001945  0
 MI BND  X00001946
 UP BND  X00001946  0
 MI BND  X00001947
 UP BND  X00001947  0
 MI BND  X00001948
 UP BND  X00001948  0
 MI BND  X00001949
 UP BND  X00001949  0
 MI BND  X00001950
 UP BND  X00001950  0
 MI BND  X00001951
 UP BND  X00001951  0
 MI BND  X00001952
 UP BND  X00001952  0
 MI BND  X00001953
 UP BND  X00001953  0
 MI BND  X00001954
 UP BND  X00001954  0
 MI BND  X00001955
 UP BND  X00001955  0
 MI BND  X00001956
 UP BND  X00001956  0
 MI BND  X00001957
 UP BND  X00001957  0
 MI BND  X00001958
 UP BND  X00001958  0
 MI BND  X00001959
 UP BND  X00001959  0
 MI BND  X00001960
 UP BND  X00001960  0
 MI BND  X00001961
 UP BND  X00001961  0
 MI BND  X00001962
 UP BND  X00001962  0
 MI BND  X00001963
 UP BND  X00001963  0
 MI BND  X00001964
 UP BND  X00001964  0
 MI BND  X00001965
 UP BND  X00001965  0
 MI BND  X00001966
 UP BND  X00001966  0
 MI BND  X00001967
 UP BND  X00001967  0
 MI BND  X00001968
 UP BND  X00001968  0
 MI BND  X00001969
 UP BND  X00001969  0
 MI BND  X00001970
 UP BND  X00001970  0
 MI BND  X00001971
 UP BND  X00001971  0
 MI BND  X00001972
 UP BND  X00001972  0
 MI BND  X00001973
 UP BND  X00001973  0
 MI BND  X00001974
 UP BND  X00001974  0
 MI BND  X00001975
 UP BND  X00001975  0
 MI BND  X00001976
 UP BND  X00001976  0
 MI BND  X00001977
 UP BND  X00001977  0
 MI BND  X00001978
 UP BND  X00001978  0
 MI BND  X00001979
 UP BND  X00001979  0
 MI BND  X00001980
 UP BND  X00001980  0
 LO BND  X00001981  310741
 UP BND  X00001981  3884280
 MI BND  X00001982
 UP BND  X00001982  0
 MI BND  X00001983
 UP BND  X00001983  0
 MI BND  X00001984
 UP BND  X00001984  0
 LO BND  X00001985  310741
 UP BND  X00001985  3884280
 MI BND  X00001986
 UP BND  X00001986  0
 MI BND  X00001987
 UP BND  X00001987  0
 MI BND  X00001988
 UP BND  X00001988  0
 MI BND  X00001989
 UP BND  X00001989  0
 MI BND  X00001990
 UP BND  X00001990  0
 MI BND  X00001991
 UP BND  X00001991  0
 MI BND  X00001992
 UP BND  X00001992  0
 MI BND  X00001993
 UP BND  X00001993  0
 MI BND  X00001994
 UP BND  X00001994  0
 MI BND  X00001995
 UP BND  X00001995  0
 MI BND  X00001996
 UP BND  X00001996  0
 MI BND  X00001997
 UP BND  X00001997  0
 MI BND  X00001998
 UP BND  X00001998  0
 MI BND  X00001999
 UP BND  X00001999  0
 MI BND  X00002000
 UP BND  X00002000  0
 MI BND  X00002001
 UP BND  X00002001  0
 MI BND  X00002002
 UP BND  X00002002  0
 MI BND  X00002003
 UP BND  X00002003  0
 MI BND  X00002004
 UP BND  X00002004  0
 MI BND  X00002005
 UP BND  X00002005  0
 MI BND  X00002006
 UP BND  X00002006  0
 MI BND  X00002007
 UP BND  X00002007  0
 MI BND  X00002008
 UP BND  X00002008  0
 MI BND  X00002009
 UP BND  X00002009  0
 MI BND  X00002010
 UP BND  X00002010  0
 MI BND  X00002011
 UP BND  X00002011  0
 MI BND  X00002012
 UP BND  X00002012  0
 MI BND  X00002013
 UP BND  X00002013  0
 MI BND  X00002014
 UP BND  X00002014  0
 MI BND  X00002015
 UP BND  X00002015  0
 MI BND  X00002016
 UP BND  X00002016  0
 MI BND  X00002017
 UP BND  X00002017  0
 MI BND  X00002018
 UP BND  X00002018  0
 MI BND  X00002019
 UP BND  X00002019  0
 MI BND  X00002020
 UP BND  X00002020  0
 MI BND  X00002021
 UP BND  X00002021  0
 MI BND  X00002022
 UP BND  X00002022  0
 MI BND  X00002023
 UP BND  X00002023  0
 MI BND  X00002024
 UP BND  X00002024  0
 MI BND  X00002025
 UP BND  X00002025  0
 MI BND  X00002026
 UP BND  X00002026  0
 MI BND  X00002027
 UP BND  X00002027  0
 MI BND  X00002028
 UP BND  X00002028  0
 MI BND  X00002029
 UP BND  X00002029  0
 MI BND  X00002030
 UP BND  X00002030  0
 MI BND  X00002031
 UP BND  X00002031  0
 MI BND  X00002032
 UP BND  X00002032  0
 MI BND  X00002033
 UP BND  X00002033  0
 MI BND  X00002034
 UP BND  X00002034  0
 MI BND  X00002035
 UP BND  X00002035  0
 MI BND  X00002036
 UP BND  X00002036  0
 MI BND  X00002037
 UP BND  X00002037  0
 MI BND  X00002038
 UP BND  X00002038  0
 MI BND  X00002039
 UP BND  X00002039  0
 MI BND  X00002040
 UP BND  X00002040  0
 LO BND  X00002041  -2053550000
 UP BND  X00002041  2053540000
 LO BND  X00002042  -80150700
 UP BND  X00002042  80150000
 LO BND  X00002043  -806606000
 UP BND  X00002043  806600000
 LO BND  X00002044  -75299600
 UP BND  X00002044  75299000
 LO BND  X00002045  70544
 UP BND  X00002045  881800
 LO BND  X00002046  1817970
 UP BND  X00002046  22724700
 LO BND  X00002047  18146
 UP BND  X00002047  226825
 LO BND  X00002048  57283
 UP BND  X00002048  716040
 LO BND  X00002049  -1066940000
 UP BND  X00002049  1066950000
 MI BND  X00002050
 UP BND  X00002050  0
 MI BND  X00002051
 UP BND  X00002051  0
 MI BND  X00002052
 UP BND  X00002052  0
 MI BND  X00002053
 UP BND  X00002053  0
 MI BND  X00002054
 UP BND  X00002054  0
 MI BND  X00002055
 UP BND  X00002055  0
 MI BND  X00002056
 UP BND  X00002056  0
 MI BND  X00002057
 UP BND  X00002057  0
 MI BND  X00002058
 UP BND  X00002058  0
 MI BND  X00002059
 UP BND  X00002059  0
 MI BND  X00002060
 UP BND  X00002060  0
 LO BND  X00002061  -17791700
 UP BND  X00002061  17791700
 MI BND  X00002062
 UP BND  X00002062  0
 MI BND  X00002063
 UP BND  X00002063  0
 LO BND  X00002064  35648
 UP BND  X00002064  445608
 MI BND  X00002065
 UP BND  X00002065  0
 MI BND  X00002066
 UP BND  X00002066  0
 MI BND  X00002067
 UP BND  X00002067  0
 MI BND  X00002068
 UP BND  X00002068  0
 LO BND  X00002069  -17346100
 UP BND  X00002069  17346100
 MI BND  X00002070
 UP BND  X00002070  0
 LO BND  X00002071  7389390
 UP BND  X00002071  154910000
 MI BND  X00002072
 UP BND  X00002072  0
 LO BND  X00002073  7389390
 UP BND  X00002073  92367000
 MI BND  X00002074
 UP BND  X00002074  0
 MI BND  X00002075
 UP BND  X00002075  0
 MI BND  X00002076
 UP BND  X00002076  0
 MI BND  X00002077
 UP BND  X00002077  0
 MI BND  X00002078
 UP BND  X00002078  0
 LO BND  X00002079  5003450
 UP BND  X00002079  62543000
 MI BND  X00002080
 UP BND  X00002080  0
 MI BND  X00002081
 UP BND  X00002081  0
 MI BND  X00002082
 UP BND  X00002082  0
 MI BND  X00002083
 UP BND  X00002083  0
 MI BND  X00002084
 UP BND  X00002084  0
 MI BND  X00002085
 UP BND  X00002085  0
 MI BND  X00002086
 UP BND  X00002086  0
 MI BND  X00002087
 UP BND  X00002087  0
 MI BND  X00002088
 UP BND  X00002088  0
 MI BND  X00002089
 UP BND  X00002089  0
 MI BND  X00002090
 UP BND  X00002090  0
 LO BND  X00002091  474654
 UP BND  X00002091  5933100
 MI BND  X00002092
 UP BND  X00002092  0
 LO BND  X00002093  474654
 UP BND  X00002093  5933100
 MI BND  X00002094
 UP BND  X00002094  0
 MI BND  X00002095
 UP BND  X00002095  0
 MI BND  X00002096
 UP BND  X00002096  0
 MI BND  X00002097
 UP BND  X00002097  0
 MI BND  X00002098
 UP BND  X00002098  0
 MI BND  X00002099
 UP BND  X00002099  0
 MI BND  X00002100
 UP BND  X00002100  0
 LO BND  X00002101  -1508330000
 UP BND  X00002101  1508340000
 LO BND  X00002102  -79200200
 UP BND  X00002102  79199000
 LO BND  X00002103  -453563000
 UP BND  X00002103  453564000
 LO BND  X00002104  -39995700
 UP BND  X00002104  39995600
 MI BND  X00002105
 UP BND  X00002105  0
 LO BND  X00002106  1817970
 UP BND  X00002106  22724700
 MI BND  X00002107
 UP BND  X00002107  0
 LO BND  X00002108  57283
 UP BND  X00002108  716040
 LO BND  X00002109  -912142000
 UP BND  X00002109  912130000
 MI BND  X00002110
 UP BND  X00002110  0
 MI BND  X00002111
 UP BND  X00002111  0
 MI BND  X00002112
 UP BND  X00002112  0
 MI BND  X00002113
 UP BND  X00002113  0
 MI BND  X00002114
 UP BND  X00002114  0
 MI BND  X00002115
 UP BND  X00002115  0
 MI BND  X00002116
 UP BND  X00002116  0
 MI BND  X00002117
 UP BND  X00002117  0
 MI BND  X00002118
 UP BND  X00002118  0
 MI BND  X00002119
 UP BND  X00002119  0
 MI BND  X00002120
 UP BND  X00002120  0
 MI BND  X00002121
 UP BND  X00002121  0
 MI BND  X00002122
 UP BND  X00002122  0
 MI BND  X00002123
 UP BND  X00002123  0
 MI BND  X00002124
 UP BND  X00002124  0
 MI BND  X00002125
 UP BND  X00002125  0
 MI BND  X00002126
 UP BND  X00002126  0
 MI BND  X00002127
 UP BND  X00002127  0
 MI BND  X00002128
 UP BND  X00002128  0
 MI BND  X00002129
 UP BND  X00002129  0
 MI BND  X00002130
 UP BND  X00002130  0
 LO BND  X00002131  -9550690
 UP BND  X00002131  9550700
 MI BND  X00002132
 UP BND  X00002132  0
 MI BND  X00002133
 UP BND  X00002133  0
 LO BND  X00002134  588674
 UP BND  X00002134  8280400
 MI BND  X00002135
 UP BND  X00002135  0
 MI BND  X00002136
 UP BND  X00002136  0
 MI BND  X00002137
 UP BND  X00002137  0
 MI BND  X00002138
 UP BND  X00002138  0
 LO BND  X00002139  101628
 UP BND  X00002139  1270350
 MI BND  X00002140
 UP BND  X00002140  0
 LO BND  X00002141  -33515000
 UP BND  X00002141  33514900
 LO BND  X00002142  15624
 UP BND  X00002142  195304
 MI BND  X00002143
 UP BND  X00002143  0
 LO BND  X00002144  -6106850
 UP BND  X00002144  6106800
 MI BND  X00002145
 UP BND  X00002145  0
 MI BND  X00002146
 UP BND  X00002146  0
 MI BND  X00002147
 UP BND  X00002147  0
 MI BND  X00002148
 UP BND  X00002148  0
 LO BND  X00002149  -27212900
 UP BND  X00002149  27212900
 MI BND  X00002150
 UP BND  X00002150  0
 LO BND  X00002151  -289248000
 UP BND  X00002151  289247000
 MI BND  X00002152
 UP BND  X00002152  0
 LO BND  X00002153  -254740000
 UP BND  X00002153  254740000
 LO BND  X00002154  -20470800
 UP BND  X00002154  20470900
 LO BND  X00002155  70544
 UP BND  X00002155  881800
 MI BND  X00002156
 UP BND  X00002156  0
 LO BND  X00002157  18146
 UP BND  X00002157  226825
 MI BND  X00002158
 UP BND  X00002158  0
 LO BND  X00002159  -12928200
 UP BND  X00002159  12928300
 MI BND  X00002160
 UP BND  X00002160  0
 LO BND  X00002161  1265540
 UP BND  X00002161  16574400
 LO BND  X00002162  60413
 UP BND  X00002162  755170
 MI BND  X00002163
 UP BND  X00002163  0
 MI BND  X00002164
 UP BND  X00002164  0
 MI BND  X00002165
 UP BND  X00002165  0
 MI BND  X00002166
 UP BND  X00002166  0
 MI BND  X00002167
 UP BND  X00002167  0
 MI BND  X00002168
 UP BND  X00002168  0
 LO BND  X00002169  1265540
 UP BND  X00002169  15819200
 MI BND  X00002170
 UP BND  X00002170  0
 LO BND  X00002171  1161740
 UP BND  X00002171  17523500
 MI BND  X00002172
 UP BND  X00002172  0
 MI BND  X00002173
 UP BND  X00002173  0
 MI BND  X00002174
 UP BND  X00002174  0
 MI BND  X00002175
 UP BND  X00002175  0
 MI BND  X00002176
 UP BND  X00002176  0
 MI BND  X00002177
 UP BND  X00002177  0
 MI BND  X00002178
 UP BND  X00002178  0
 LO BND  X00002179  1161740
 UP BND  X00002179  17523500
 MI BND  X00002180
 UP BND  X00002180  0
 MI BND  X00002181
 UP BND  X00002181  0
 MI BND  X00002182
 UP BND  X00002182  0
 MI BND  X00002183
 UP BND  X00002183  0
 MI BND  X00002184
 UP BND  X00002184  0
 MI BND  X00002185
 UP BND  X00002185  0
 MI BND  X00002186
 UP BND  X00002186  0
 MI BND  X00002187
 UP BND  X00002187  0
 MI BND  X00002188
 UP BND  X00002188  0
 MI BND  X00002189
 UP BND  X00002189  0
 MI BND  X00002190
 UP BND  X00002190  0
 LO BND  X00002191  13134
 UP BND  X00002191  164178
 MI BND  X00002192
 UP BND  X00002192  0
 MI BND  X00002193
 UP BND  X00002193  0
 MI BND  X00002194
 UP BND  X00002194  0
 MI BND  X00002195
 UP BND  X00002195  0
 MI BND  X00002196
 UP BND  X00002196  0
 MI BND  X00002197
 UP BND  X00002197  0
 MI BND  X00002198
 UP BND  X00002198  0
 LO BND  X00002199  13134
 UP BND  X00002199  164178
 MI BND  X00002200
 UP BND  X00002200  0
 MI BND  X00002201
 UP BND  X00002201  0
 MI BND  X00002202
 UP BND  X00002202  0
 MI BND  X00002203
 UP BND  X00002203  0
 MI BND  X00002204
 UP BND  X00002204  0
 MI BND  X00002205
 UP BND  X00002205  0
 MI BND  X00002206
 UP BND  X00002206  0
 MI BND  X00002207
 UP BND  X00002207  0
 MI BND  X00002208
 UP BND  X00002208  0
 MI BND  X00002209
 UP BND  X00002209  0
 MI BND  X00002210
 UP BND  X00002210  0
 LO BND  X00002211  -31382500000
 UP BND  X00002211  31382600000
 LO BND  X00002212  812122000
 UP BND  X00002212  29454900000
 LO BND  X00002213  -31779500
 UP BND  X00002213  31779500
 LO BND  X00002214  -13841600
 UP BND  X00002214  13841500
 LO BND  X00002215  511532
 UP BND  X00002215  6394100
 LO BND  X00002216  1400790
 UP BND  X00002216  32892400
 MI BND  X00002217
 UP BND  X00002217  0
 MI BND  X00002218
 UP BND  X00002218  0
 LO BND  X00002219  -1842840000
 UP BND  X00002219  1842840000
 MI BND  X00002220
 UP BND  X00002220  0
 LO BND  X00002221  3563600
 UP BND  X00002221  44736200
 MI BND  X00002222
 UP BND  X00002222  0
 MI BND  X00002223
 UP BND  X00002223  0
 LO BND  X00002224  15268
 UP BND  X00002224  190855
 MI BND  X00002225
 UP BND  X00002225  0
 MI BND  X00002226
 UP BND  X00002226  0
 MI BND  X00002227
 UP BND  X00002227  0
 MI BND  X00002228
 UP BND  X00002228  0
 LO BND  X00002229  3563600
 UP BND  X00002229  44544900
 MI BND  X00002230
 UP BND  X00002230  0
 MI BND  X00002231
 UP BND  X00002231  0
 MI BND  X00002232
 UP BND  X00002232  0
 MI BND  X00002233
 UP BND  X00002233  0
 MI BND  X00002234
 UP BND  X00002234  0
 MI BND  X00002235
 UP BND  X00002235  0
 MI BND  X00002236
 UP BND  X00002236  0
 MI BND  X00002237
 UP BND  X00002237  0
 MI BND  X00002238
 UP BND  X00002238  0
 MI BND  X00002239
 UP BND  X00002239  0
 MI BND  X00002240
 UP BND  X00002240  0
 LO BND  X00002241  -26321700
 UP BND  X00002241  26321800
 MI BND  X00002242
 UP BND  X00002242  0
 MI BND  X00002243
 UP BND  X00002243  0
 LO BND  X00002244  39336
 UP BND  X00002244  491698
 MI BND  X00002245
 UP BND  X00002245  0
 LO BND  X00002246  1400790
 UP BND  X00002246  17509800
 MI BND  X00002247
 UP BND  X00002247  0
 MI BND  X00002248
 UP BND  X00002248  0
 LO BND  X00002249  -8320190
 UP BND  X00002249  8320200
 MI BND  X00002250
 UP BND  X00002250  0
 LO BND  X00002251  169377000
 UP BND  X00002251  6662200000
 LO BND  X00002252  466295000
 UP BND  X00002252  6101600000
 MI BND  X00002253
 UP BND  X00002253  0
 LO BND  X00002254  -1759150
 UP BND  X00002254  1759160
 LO BND  X00002255  511532
 UP BND  X00002255  6394100
 MI BND  X00002256
 UP BND  X00002256  0
 MI BND  X00002257
 UP BND  X00002257  0
 MI BND  X00002258
 UP BND  X00002258  0
 LO BND  X00002259  44196400
 UP BND  X00002259  552570000
 MI BND  X00002260
 UP BND  X00002260  0
 LO BND  X00002261  17615
 UP BND  X00002261  220185
 MI BND  X00002262
 UP BND  X00002262  0
 MI BND  X00002263
 UP BND  X00002263  0
 LO BND  X00002264  17615
 UP BND  X00002264  220185
 MI BND  X00002265
 UP BND  X00002265  0
 MI BND  X00002266
 UP BND  X00002266  0
 MI BND  X00002267
 UP BND  X00002267  0
 MI BND  X00002268
 UP BND  X00002268  0
 MI BND  X00002269
 UP BND  X00002269  0
 MI BND  X00002270
 UP BND  X00002270  0
 LO BND  X00002271  -949366000
 UP BND  X00002271  949360000
 LO BND  X00002272  -349518000
 UP BND  X00002272  349514000
 LO BND  X00002273  1736510
 UP BND  X00002273  21706300
 LO BND  X00002274  18045
 UP BND  X00002274  362478
 MI BND  X00002275
 UP BND  X00002275  0
 MI BND  X00002276
 UP BND  X00002276  0
 MI BND  X00002277
 UP BND  X00002277  0
 MI BND  X00002278
 UP BND  X00002278  0
 LO BND  X00002279  -577773000
 UP BND  X00002279  577780000
 MI BND  X00002280
 UP BND  X00002280  0
 LO BND  X00002281  1838410000
 UP BND  X00002281  22986200000
 LO BND  X00002282  1838820000
 UP BND  X00002282  22985200000
 LO BND  X00002283  16516
 UP BND  X00002283  206444
 MI BND  X00002284
 UP BND  X00002284  0
 MI BND  X00002285
 UP BND  X00002285  0
 MI BND  X00002286
 UP BND  X00002286  0
 MI BND  X00002287
 UP BND  X00002287  0
 MI BND  X00002288
 UP BND  X00002288  0
 LO BND  X00002289  57082
 UP BND  X00002289  713520
 MI BND  X00002290
 UP BND  X00002290  0
 LO BND  X00002291  212335
 UP BND  X00002291  3697820
 MI BND  X00002292
 UP BND  X00002292  0
 MI BND  X00002293
 UP BND  X00002293  0
 LO BND  X00002294  212335
 UP BND  X00002294  2654190
 MI BND  X00002295
 UP BND  X00002295  0
 MI BND  X00002296
 UP BND  X00002296  0
 MI BND  X00002297
 UP BND  X00002297  0
 MI BND  X00002298
 UP BND  X00002298  0
 LO BND  X00002299  83492
 UP BND  X00002299  1043650
 MI BND  X00002300
 UP BND  X00002300  0
 LO BND  X00002301  -49125100
 UP BND  X00002301  49124700
 LO BND  X00002302  1482690
 UP BND  X00002302  18533600
 LO BND  X00002303  704355
 UP BND  X00002303  8804400
 LO BND  X00002304  16954
 UP BND  X00002304  211925
 MI BND  X00002305
 UP BND  X00002305  0
 MI BND  X00002306
 UP BND  X00002306  0
 MI BND  X00002307
 UP BND  X00002307  0
 MI BND  X00002308
 UP BND  X00002308  0
 LO BND  X00002309  182766
 UP BND  X00002309  21575200
 MI BND  X00002310
 UP BND  X00002310  0
 LO BND  X00002311  -82121300
 UP BND  X00002311  82122000
 MI BND  X00002312
 UP BND  X00002312  0
 MI BND  X00002313
 UP BND  X00002313  0
 LO BND  X00002314  -5077220
 UP BND  X00002314  5077200
 MI BND  X00002315
 UP BND  X00002315  0
 LO BND  X00002316  1230600
 UP BND  X00002316  15382500
 MI BND  X00002317
 UP BND  X00002317  0
 MI BND  X00002318
 UP BND  X00002318  0
 LO BND  X00002319  4895080
 UP BND  X00002319  61662000
 MI BND  X00002320
 UP BND  X00002320  0
 LO BND  X00002321  -3241550
 UP BND  X00002321  3241550
 MI BND  X00002322
 UP BND  X00002322  0
 LO BND  X00002323  84984
 UP BND  X00002323  1062300
 LO BND  X00002324  -2179260
 UP BND  X00002324  2179250
 MI BND  X00002325
 UP BND  X00002325  0
 MI BND  X00002326
 UP BND  X00002326  0
 MI BND  X00002327
 UP BND  X00002327  0
 MI BND  X00002328
 UP BND  X00002328  0
 MI BND  X00002329
 UP BND  X00002329  0
 MI BND  X00002330
 UP BND  X00002330  0
 MI BND  X00002331
 UP BND  X00002331  0
 MI BND  X00002332
 UP BND  X00002332  0
 MI BND  X00002333
 UP BND  X00002333  0
 MI BND  X00002334
 UP BND  X00002334  0
 MI BND  X00002335
 UP BND  X00002335  0
 MI BND  X00002336
 UP BND  X00002336  0
 MI BND  X00002337
 UP BND  X00002337  0
 MI BND  X00002338
 UP BND  X00002338  0
 MI BND  X00002339
 UP BND  X00002339  0
 MI BND  X00002340
 UP BND  X00002340  0
 MI BND  X00002341
 UP BND  X00002341  0
 MI BND  X00002342
 UP BND  X00002342  0
 MI BND  X00002343
 UP BND  X00002343  0
 MI BND  X00002344
 UP BND  X00002344  0
 MI BND  X00002345
 UP BND  X00002345  0
 MI BND  X00002346
 UP BND  X00002346  0
 MI BND  X00002347
 UP BND  X00002347  0
 MI BND  X00002348
 UP BND  X00002348  0
 MI BND  X00002349
 UP BND  X00002349  0
 MI BND  X00002350
 UP BND  X00002350  0
 LO BND  X00002351  29767
 UP BND  X00002351  694620
 MI BND  X00002352
 UP BND  X00002352  0
 MI BND  X00002353
 UP BND  X00002353  0
 LO BND  X00002354  29767
 UP BND  X00002354  694620
 MI BND  X00002355
 UP BND  X00002355  0
 MI BND  X00002356
 UP BND  X00002356  0
 MI BND  X00002357
 UP BND  X00002357  0
 MI BND  X00002358
 UP BND  X00002358  0
 MI BND  X00002359
 UP BND  X00002359  0
 MI BND  X00002360
 UP BND  X00002360  0
 LO BND  X00002361  45881800
 UP BND  X00002361  574640000
 MI BND  X00002362
 UP BND  X00002362  0
 MI BND  X00002363
 UP BND  X00002363  0
 MI BND  X00002364
 UP BND  X00002364  0
 MI BND  X00002365
 UP BND  X00002365  0
 MI BND  X00002366
 UP BND  X00002366  0
 MI BND  X00002367
 UP BND  X00002367  0
 MI BND  X00002368
 UP BND  X00002368  0
 LO BND  X00002369  45881800
 UP BND  X00002369  574640000
 MI BND  X00002370
 UP BND  X00002370  0
 MI BND  X00002371
 UP BND  X00002371  0
 MI BND  X00002372
 UP BND  X00002372  0
 MI BND  X00002373
 UP BND  X00002373  0
 MI BND  X00002374
 UP BND  X00002374  0
 MI BND  X00002375
 UP BND  X00002375  0
 MI BND  X00002376
 UP BND  X00002376  0
 MI BND  X00002377
 UP BND  X00002377  0
 MI BND  X00002378
 UP BND  X00002378  0
 MI BND  X00002379
 UP BND  X00002379  0
 MI BND  X00002380
 UP BND  X00002380  0
 LO BND  X00002381  -7059150000
 UP BND  X00002381  7059200000
 LO BND  X00002382  413581000
 UP BND  X00002382  6006300000
 LO BND  X00002383  291467
 UP BND  X00002383  10073100
 LO BND  X00002384  -13841600
 UP BND  X00002384  13841500
 LO BND  X00002385  511532
 UP BND  X00002385  6394100
 LO BND  X00002386  1230600
 UP BND  X00002386  15382500
 MI BND  X00002387
 UP BND  X00002387  0
 MI BND  X00002388
 UP BND  X00002388  0
 LO BND  X00002389  -1007250000
 UP BND  X00002389  1007240000
 MI BND  X00002390
 UP BND  X00002390  0
 LO BND  X00002391  3563600
 UP BND  X00002391  44736200
 MI BND  X00002392
 UP BND  X00002392  0
 MI BND  X00002393
 UP BND  X00002393  0
 LO BND  X00002394  15268
 UP BND  X00002394  190855
 MI BND  X00002395
 UP BND  X00002395  0
 MI BND  X00002396
 UP BND  X00002396  0
 MI BND  X00002397
 UP BND  X00002397  0
 MI BND  X00002398
 UP BND  X00002398  0
 LO BND  X00002399  3563600
 UP BND  X00002399  44544900
 MI BND  X00002400
 UP BND  X00002400  0
 MI BND  X00002401
 UP BND  X00002401  0
 MI BND  X00002402
 UP BND  X00002402  0
 MI BND  X00002403
 UP BND  X00002403  0
 MI BND  X00002404
 UP BND  X00002404  0
 MI BND  X00002405
 UP BND  X00002405  0
 MI BND  X00002406
 UP BND  X00002406  0
 MI BND  X00002407
 UP BND  X00002407  0
 MI BND  X00002408
 UP BND  X00002408  0
 MI BND  X00002409
 UP BND  X00002409  0
 MI BND  X00002410
 UP BND  X00002410  0
 LO BND  X00002411  -2592500
 UP BND  X00002411  2592510
 MI BND  X00002412
 UP BND  X00002412  0
 MI BND  X00002413
 UP BND  X00002413  0
 LO BND  X00002414  39336
 UP BND  X00002414  491698
 MI BND  X00002415
 UP BND  X00002415  0
 MI BND  X00002416
 UP BND  X00002416  0
 MI BND  X00002417
 UP BND  X00002417  0
 MI BND  X00002418
 UP BND  X00002418  0
 LO BND  X00002419  -2100810
 UP BND  X00002419  2100810
 MI BND  X00002420
 UP BND  X00002420  0
 LO BND  X00002421  459971000
 UP BND  X00002421  6516900000
 LO BND  X00002422  476498000
 UP BND  X00002422  5956200000
 MI BND  X00002423
 UP BND  X00002423  0
 LO BND  X00002424  -1759150
 UP BND  X00002424  1759160
 LO BND  X00002425  511532
 UP BND  X00002425  6394100
 MI BND  X00002426
 UP BND  X00002426  0
 MI BND  X00002427
 UP BND  X00002427  0
 MI BND  X00002428
 UP BND  X00002428  0
 LO BND  X00002429  44196400
 UP BND  X00002429  552570000
 MI BND  X00002430
 UP BND  X00002430  0
 LO BND  X00002431  17615
 UP BND  X00002431  220185
 MI BND  X00002432
 UP BND  X00002432  0
 MI BND  X00002433
 UP BND  X00002433  0
 LO BND  X00002434  17615
 UP BND  X00002434  220185
 MI BND  X00002435
 UP BND  X00002435  0
 MI BND  X00002436
 UP BND  X00002436  0
 MI BND  X00002437
 UP BND  X00002437  0
 MI BND  X00002438
 UP BND  X00002438  0
 MI BND  X00002439
 UP BND  X00002439  0
 MI BND  X00002440
 UP BND  X00002440  0
 LO BND  X00002441  -368499000
 UP BND  X00002441  368501000
 LO BND  X00002442  -31458500
 UP BND  X00002442  31458500
 MI BND  X00002443
 UP BND  X00002443  0
 LO BND  X00002444  18045
 UP BND  X00002444  362478
 MI BND  X00002445
 UP BND  X00002445  0
 MI BND  X00002446
 UP BND  X00002446  0
 MI BND  X00002447
 UP BND  X00002447  0
 MI BND  X00002448
 UP BND  X00002448  0
 LO BND  X00002449  -336678000
 UP BND  X00002449  336683000
 MI BND  X00002450
 UP BND  X00002450  0
 LO BND  X00002451  16516
 UP BND  X00002451  206444
 MI BND  X00002452
 UP BND  X00002452  0
 LO BND  X00002453  16516
 UP BND  X00002453  206444
 MI BND  X00002454
 UP BND  X00002454  0
 MI BND  X00002455
 UP BND  X00002455  0
 MI BND  X00002456
 UP BND  X00002456  0
 MI BND  X00002457
 UP BND  X00002457  0
 MI BND  X00002458
 UP BND  X00002458  0
 MI BND  X00002459
 UP BND  X00002459  0
 MI BND  X00002460
 UP BND  X00002460  0
 LO BND  X00002461  212335
 UP BND  X00002461  3697820
 MI BND  X00002462
 UP BND  X00002462  0
 MI BND  X00002463
 UP BND  X00002463  0
 LO BND  X00002464  212335
 UP BND  X00002464  2654190
 MI BND  X00002465
 UP BND  X00002465  0
 MI BND  X00002466
 UP BND  X00002466  0
 MI BND  X00002467
 UP BND  X00002467  0
 MI BND  X00002468
 UP BND  X00002468  0
 LO BND  X00002469  83492
 UP BND  X00002469  1043650
 MI BND  X00002470
 UP BND  X00002470  0
 LO BND  X00002471  -35082400
 UP BND  X00002471  35082200
 LO BND  X00002472  1482690
 UP BND  X00002472  18533600
 LO BND  X00002473  704355
 UP BND  X00002473  8804400
 LO BND  X00002474  16954
 UP BND  X00002474  211925
 MI BND  X00002475
 UP BND  X00002475  0
 MI BND  X00002476
 UP BND  X00002476  0
 MI BND  X00002477
 UP BND  X00002477  0
 MI BND  X00002478
 UP BND  X00002478  0
 LO BND  X00002479  564971
 UP BND  X00002479  7532500
 MI BND  X00002480
 UP BND  X00002480  0
 LO BND  X00002481  -82121300
 UP BND  X00002481  82122000
 MI BND  X00002482
 UP BND  X00002482  0
 MI BND  X00002483
 UP BND  X00002483  0
 LO BND  X00002484  -5077220
 UP BND  X00002484  5077200
 MI BND  X00002485
 UP BND  X00002485  0
 LO BND  X00002486  1230600
 UP BND  X00002486  15382500
 MI BND  X00002487
 UP BND  X00002487  0
 MI BND  X00002488
 UP BND  X00002488  0
 LO BND  X00002489  4895080
 UP BND  X00002489  61662000
 MI BND  X00002490
 UP BND  X00002490  0
 LO BND  X00002491  -3241550
 UP BND  X00002491  3241550
 MI BND  X00002492
 UP BND  X00002492  0
 LO BND  X00002493  84984
 UP BND  X00002493  1062300
 LO BND  X00002494  -2179260
 UP BND  X00002494  2179250
 MI BND  X00002495
 UP BND  X00002495  0
 MI BND  X00002496
 UP BND  X00002496  0
 MI BND  X00002497
 UP BND  X00002497  0
 MI BND  X00002498
 UP BND  X00002498  0
 MI BND  X00002499
 UP BND  X00002499  0
 MI BND  X00002500
 UP BND  X00002500  0
 MI BND  X00002501
 UP BND  X00002501  0
 MI BND  X00002502
 UP BND  X00002502  0
 MI BND  X00002503
 UP BND  X00002503  0
 MI BND  X00002504
 UP BND  X00002504  0
 MI BND  X00002505
 UP BND  X00002505  0
 MI BND  X00002506
 UP BND  X00002506  0
 MI BND  X00002507
 UP BND  X00002507  0
 MI BND  X00002508
 UP BND  X00002508  0
 MI BND  X00002509
 UP BND  X00002509  0
 MI BND  X00002510
 UP BND  X00002510  0
 MI BND  X00002511
 UP BND  X00002511  0
 MI BND  X00002512
 UP BND  X00002512  0
 MI BND  X00002513
 UP BND  X00002513  0
 MI BND  X00002514
 UP BND  X00002514  0
 MI BND  X00002515
 UP BND  X00002515  0
 MI BND  X00002516
 UP BND  X00002516  0
 MI BND  X00002517
 UP BND  X00002517  0
 MI BND  X00002518
 UP BND  X00002518  0
 MI BND  X00002519
 UP BND  X00002519  0
 MI BND  X00002520
 UP BND  X00002520  0
 LO BND  X00002521  29767
 UP BND  X00002521  694620
 MI BND  X00002522
 UP BND  X00002522  0
 MI BND  X00002523
 UP BND  X00002523  0
 LO BND  X00002524  29767
 UP BND  X00002524  694620
 MI BND  X00002525
 UP BND  X00002525  0
 MI BND  X00002526
 UP BND  X00002526  0
 MI BND  X00002527
 UP BND  X00002527  0
 MI BND  X00002528
 UP BND  X00002528  0
 MI BND  X00002529
 UP BND  X00002529  0
 MI BND  X00002530
 UP BND  X00002530  0
 LO BND  X00002531  89174
 UP BND  X00002531  1114670
 MI BND  X00002532
 UP BND  X00002532  0
 MI BND  X00002533
 UP BND  X00002533  0
 MI BND  X00002534
 UP BND  X00002534  0
 MI BND  X00002535
 UP BND  X00002535  0
 MI BND  X00002536
 UP BND  X00002536  0
 MI BND  X00002537
 UP BND  X00002537  0
 MI BND  X00002538
 UP BND  X00002538  0
 LO BND  X00002539  89174
 UP BND  X00002539  1114670
 MI BND  X00002540
 UP BND  X00002540  0
 MI BND  X00002541
 UP BND  X00002541  0
 MI BND  X00002542
 UP BND  X00002542  0
 MI BND  X00002543
 UP BND  X00002543  0
 MI BND  X00002544
 UP BND  X00002544  0
 MI BND  X00002545
 UP BND  X00002545  0
 MI BND  X00002546
 UP BND  X00002546  0
 MI BND  X00002547
 UP BND  X00002547  0
 MI BND  X00002548
 UP BND  X00002548  0
 MI BND  X00002549
 UP BND  X00002549  0
 MI BND  X00002550
 UP BND  X00002550  0
 LO BND  X00002551  309527000
 UP BND  X00002551  24323400000
 LO BND  X00002552  1522880000
 UP BND  X00002552  23448600000
 LO BND  X00002553  1736510
 UP BND  X00002553  21706300
 MI BND  X00002554
 UP BND  X00002554  0
 MI BND  X00002555
 UP BND  X00002555  0
 LO BND  X00002556  1400790
 UP BND  X00002556  17509800
 MI BND  X00002557
 UP BND  X00002557  0
 MI BND  X00002558
 UP BND  X00002558  0
 LO BND  X00002559  -835594000
 UP BND  X00002559  835600000
 MI BND  X00002560
 UP BND  X00002560  0
 MI BND  X00002561
 UP BND  X00002561  0
 MI BND  X00002562
 UP BND  X00002562  0
 MI BND  X00002563
 UP BND  X00002563  0
 MI BND  X00002564
 UP BND  X00002564  0
 MI BND  X00002565
 UP BND  X00002565  0
 MI BND  X00002566
 UP BND  X00002566  0
 MI BND  X00002567
 UP BND  X00002567  0
 MI BND  X00002568
 UP BND  X00002568  0
 MI BND  X00002569
 UP BND  X00002569  0
 MI BND  X00002570
 UP BND  X00002570  0
 MI BND  X00002571
 UP BND  X00002571  0
 MI BND  X00002572
 UP BND  X00002572  0
 MI BND  X00002573
 UP BND  X00002573  0
 MI BND  X00002574
 UP BND  X00002574  0
 MI BND  X00002575
 UP BND  X00002575  0
 MI BND  X00002576
 UP BND  X00002576  0
 MI BND  X00002577
 UP BND  X00002577  0
 MI BND  X00002578
 UP BND  X00002578  0
 MI BND  X00002579
 UP BND  X00002579  0
 MI BND  X00002580
 UP BND  X00002580  0
 LO BND  X00002581  1400790
 UP BND  X00002581  23729300
 MI BND  X00002582
 UP BND  X00002582  0
 MI BND  X00002583
 UP BND  X00002583  0
 MI BND  X00002584
 UP BND  X00002584  0
 MI BND  X00002585
 UP BND  X00002585  0
 LO BND  X00002586  1400790
 UP BND  X00002586  17509800
 MI BND  X00002587
 UP BND  X00002587  0
 MI BND  X00002588
 UP BND  X00002588  0
 LO BND  X00002589  497552
 UP BND  X00002589  6219400
 MI BND  X00002590
 UP BND  X00002590  0
 LO BND  X00002591  11215600
 UP BND  X00002591  145297000
 LO BND  X00002592  11215600
 UP BND  X00002592  145297000
 MI BND  X00002593
 UP BND  X00002593  0
 MI BND  X00002594
 UP BND  X00002594  0
 MI BND  X00002595
 UP BND  X00002595  0
 MI BND  X00002596
 UP BND  X00002596  0
 MI BND  X00002597
 UP BND  X00002597  0
 MI BND  X00002598
 UP BND  X00002598  0
 MI BND  X00002599
 UP BND  X00002599  0
 MI BND  X00002600
 UP BND  X00002600  0
 MI BND  X00002601
 UP BND  X00002601  0
 MI BND  X00002602
 UP BND  X00002602  0
 MI BND  X00002603
 UP BND  X00002603  0
 MI BND  X00002604
 UP BND  X00002604  0
 MI BND  X00002605
 UP BND  X00002605  0
 MI BND  X00002606
 UP BND  X00002606  0
 MI BND  X00002607
 UP BND  X00002607  0
 MI BND  X00002608
 UP BND  X00002608  0
 MI BND  X00002609
 UP BND  X00002609  0
 MI BND  X00002610
 UP BND  X00002610  0
 LO BND  X00002611  -580866000
 UP BND  X00002611  580860000
 LO BND  X00002612  24430800
 UP BND  X00002612  318060000
 LO BND  X00002613  1736510
 UP BND  X00002613  21706300
 MI BND  X00002614
 UP BND  X00002614  0
 MI BND  X00002615
 UP BND  X00002615  0
 MI BND  X00002616
 UP BND  X00002616  0
 MI BND  X00002617
 UP BND  X00002617  0
 MI BND  X00002618
 UP BND  X00002618  0
 LO BND  X00002619  -241098000
 UP BND  X00002619  241098000
 MI BND  X00002620
 UP BND  X00002620  0
 LO BND  X00002621  1838820000
 UP BND  X00002621  22986000000
 LO BND  X00002622  1838820000
 UP BND  X00002622  22985200000
 MI BND  X00002623
 UP BND  X00002623  0
 MI BND  X00002624
 UP BND  X00002624  0
 MI BND  X00002625
 UP BND  X00002625  0
 MI BND  X00002626
 UP BND  X00002626  0
 MI BND  X00002627
 UP BND  X00002627  0
 MI BND  X00002628
 UP BND  X00002628  0
 LO BND  X00002629  57082
 UP BND  X00002629  713520
 MI BND  X00002630
 UP BND  X00002630  0
 MI BND  X00002631
 UP BND  X00002631  0
 MI BND  X00002632
 UP BND  X00002632  0
 MI BND  X00002633
 UP BND  X00002633  0
 MI BND  X00002634
 UP BND  X00002634  0
 MI BND  X00002635
 UP BND  X00002635  0
 MI BND  X00002636
 UP BND  X00002636  0
 MI BND  X00002637
 UP BND  X00002637  0
 MI BND  X00002638
 UP BND  X00002638  0
 MI BND  X00002639
 UP BND  X00002639  0
 MI BND  X00002640
 UP BND  X00002640  0
 LO BND  X00002641  1123420
 UP BND  X00002641  14042700
 MI BND  X00002642
 UP BND  X00002642  0
 MI BND  X00002643
 UP BND  X00002643  0
 MI BND  X00002644
 UP BND  X00002644  0
 MI BND  X00002645
 UP BND  X00002645  0
 MI BND  X00002646
 UP BND  X00002646  0
 MI BND  X00002647
 UP BND  X00002647  0
 MI BND  X00002648
 UP BND  X00002648  0
 LO BND  X00002649  1123420
 UP BND  X00002649  14042700
 MI BND  X00002650
 UP BND  X00002650  0
 MI BND  X00002651
 UP BND  X00002651  0
 MI BND  X00002652
 UP BND  X00002652  0
 MI BND  X00002653
 UP BND  X00002653  0
 MI BND  X00002654
 UP BND  X00002654  0
 MI BND  X00002655
 UP BND  X00002655  0
 MI BND  X00002656
 UP BND  X00002656  0
 MI BND  X00002657
 UP BND  X00002657  0
 MI BND  X00002658
 UP BND  X00002658  0
 MI BND  X00002659
 UP BND  X00002659  0
 MI BND  X00002660
 UP BND  X00002660  0
 MI BND  X00002661
 UP BND  X00002661  0
 MI BND  X00002662
 UP BND  X00002662  0
 MI BND  X00002663
 UP BND  X00002663  0
 MI BND  X00002664
 UP BND  X00002664  0
 MI BND  X00002665
 UP BND  X00002665  0
 MI BND  X00002666
 UP BND  X00002666  0
 MI BND  X00002667
 UP BND  X00002667  0
 MI BND  X00002668
 UP BND  X00002668  0
 MI BND  X00002669
 UP BND  X00002669  0
 MI BND  X00002670
 UP BND  X00002670  0
 MI BND  X00002671
 UP BND  X00002671  0
 MI BND  X00002672
 UP BND  X00002672  0
 MI BND  X00002673
 UP BND  X00002673  0
 MI BND  X00002674
 UP BND  X00002674  0
 MI BND  X00002675
 UP BND  X00002675  0
 MI BND  X00002676
 UP BND  X00002676  0
 MI BND  X00002677
 UP BND  X00002677  0
 MI BND  X00002678
 UP BND  X00002678  0
 MI BND  X00002679
 UP BND  X00002679  0
 MI BND  X00002680
 UP BND  X00002680  0
 MI BND  X00002681
 UP BND  X00002681  0
 MI BND  X00002682
 UP BND  X00002682  0
 MI BND  X00002683
 UP BND  X00002683  0
 MI BND  X00002684
 UP BND  X00002684  0
 MI BND  X00002685
 UP BND  X00002685  0
 MI BND  X00002686
 UP BND  X00002686  0
 MI BND  X00002687
 UP BND  X00002687  0
 MI BND  X00002688
 UP BND  X00002688  0
 MI BND  X00002689
 UP BND  X00002689  0
 MI BND  X00002690
 UP BND  X00002690  0
 MI BND  X00002691
 UP BND  X00002691  0
 MI BND  X00002692
 UP BND  X00002692  0
 MI BND  X00002693
 UP BND  X00002693  0
 MI BND  X00002694
 UP BND  X00002694  0
 MI BND  X00002695
 UP BND  X00002695  0
 MI BND  X00002696
 UP BND  X00002696  0
 MI BND  X00002697
 UP BND  X00002697  0
 MI BND  X00002698
 UP BND  X00002698  0
 MI BND  X00002699
 UP BND  X00002699  0
 MI BND  X00002700
 UP BND  X00002700  0
 LO BND  X00002701  45881800
 UP BND  X00002701  573530000
 MI BND  X00002702
 UP BND  X00002702  0
 MI BND  X00002703
 UP BND  X00002703  0
 MI BND  X00002704
 UP BND  X00002704  0
 MI BND  X00002705
 UP BND  X00002705  0
 MI BND  X00002706
 UP BND  X00002706  0
 MI BND  X00002707
 UP BND  X00002707  0
 MI BND  X00002708
 UP BND  X00002708  0
 LO BND  X00002709  45881800
 UP BND  X00002709  573530000
 MI BND  X00002710
 UP BND  X00002710  0
 MI BND  X00002711
 UP BND  X00002711  0
 MI BND  X00002712
 UP BND  X00002712  0
 MI BND  X00002713
 UP BND  X00002713  0
 MI BND  X00002714
 UP BND  X00002714  0
 MI BND  X00002715
 UP BND  X00002715  0
 MI BND  X00002716
 UP BND  X00002716  0
 MI BND  X00002717
 UP BND  X00002717  0
 MI BND  X00002718
 UP BND  X00002718  0
 MI BND  X00002719
 UP BND  X00002719  0
 MI BND  X00002720
 UP BND  X00002720  0
 MI BND  X00002721
 UP BND  X00002721  0
 MI BND  X00002722
 UP BND  X00002722  0
 MI BND  X00002723
 UP BND  X00002723  0
 MI BND  X00002724
 UP BND  X00002724  0
 MI BND  X00002725
 UP BND  X00002725  0
 MI BND  X00002726
 UP BND  X00002726  0
 MI BND  X00002727
 UP BND  X00002727  0
 MI BND  X00002728
 UP BND  X00002728  0
 MI BND  X00002729
 UP BND  X00002729  0
 MI BND  X00002730
 UP BND  X00002730  0
 MI BND  X00002731
 UP BND  X00002731  0
 MI BND  X00002732
 UP BND  X00002732  0
 MI BND  X00002733
 UP BND  X00002733  0
 MI BND  X00002734
 UP BND  X00002734  0
 MI BND  X00002735
 UP BND  X00002735  0
 MI BND  X00002736
 UP BND  X00002736  0
 MI BND  X00002737
 UP BND  X00002737  0
 MI BND  X00002738
 UP BND  X00002738  0
 MI BND  X00002739
 UP BND  X00002739  0
 MI BND  X00002740
 UP BND  X00002740  0
 MI BND  X00002741
 UP BND  X00002741  0
 MI BND  X00002742
 UP BND  X00002742  0
 MI BND  X00002743
 UP BND  X00002743  0
 MI BND  X00002744
 UP BND  X00002744  0
 MI BND  X00002745
 UP BND  X00002745  0
 MI BND  X00002746
 UP BND  X00002746  0
 MI BND  X00002747
 UP BND  X00002747  0
 MI BND  X00002748
 UP BND  X00002748  0
 MI BND  X00002749
 UP BND  X00002749  0
 MI BND  X00002750
 UP BND  X00002750  0
 MI BND  X00002751
 UP BND  X00002751  0
 MI BND  X00002752
 UP BND  X00002752  0
 MI BND  X00002753
 UP BND  X00002753  0
 MI BND  X00002754
 UP BND  X00002754  0
 MI BND  X00002755
 UP BND  X00002755  0
 MI BND  X00002756
 UP BND  X00002756  0
 MI BND  X00002757
 UP BND  X00002757  0
 MI BND  X00002758
 UP BND  X00002758  0
 MI BND  X00002759
 UP BND  X00002759  0
 MI BND  X00002760
 UP BND  X00002760  0
 MI BND  X00002761
 UP BND  X00002761  0
 MI BND  X00002762
 UP BND  X00002762  0
 MI BND  X00002763
 UP BND  X00002763  0
 MI BND  X00002764
 UP BND  X00002764  0
 MI BND  X00002765
 UP BND  X00002765  0
 MI BND  X00002766
 UP BND  X00002766  0
 MI BND  X00002767
 UP BND  X00002767  0
 MI BND  X00002768
 UP BND  X00002768  0
 MI BND  X00002769
 UP BND  X00002769  0
 MI BND  X00002770
 UP BND  X00002770  0
 MI BND  X00002771
 UP BND  X00002771  0
 MI BND  X00002772
 UP BND  X00002772  0
 MI BND  X00002773
 UP BND  X00002773  0
 MI BND  X00002774
 UP BND  X00002774  0
 MI BND  X00002775
 UP BND  X00002775  0
 MI BND  X00002776
 UP BND  X00002776  0
 MI BND  X00002777
 UP BND  X00002777  0
 MI BND  X00002778
 UP BND  X00002778  0
 MI BND  X00002779
 UP BND  X00002779  0
 MI BND  X00002780
 UP BND  X00002780  0
 MI BND  X00002781
 UP BND  X00002781  0
 MI BND  X00002782
 UP BND  X00002782  0
 MI BND  X00002783
 UP BND  X00002783  0
 MI BND  X00002784
 UP BND  X00002784  0
 MI BND  X00002785
 UP BND  X00002785  0
 MI BND  X00002786
 UP BND  X00002786  0
 MI BND  X00002787
 UP BND  X00002787  0
 MI BND  X00002788
 UP BND  X00002788  0
 MI BND  X00002789
 UP BND  X00002789  0
 MI BND  X00002790
 UP BND  X00002790  0
 MI BND  X00002791
 UP BND  X00002791  0
 MI BND  X00002792
 UP BND  X00002792  0
 MI BND  X00002793
 UP BND  X00002793  0
 MI BND  X00002794
 UP BND  X00002794  0
 MI BND  X00002795
 UP BND  X00002795  0
 MI BND  X00002796
 UP BND  X00002796  0
 MI BND  X00002797
 UP BND  X00002797  0
 MI BND  X00002798
 UP BND  X00002798  0
 MI BND  X00002799
 UP BND  X00002799  0
 MI BND  X00002800
 UP BND  X00002800  0
 MI BND  X00002801
 UP BND  X00002801  0
 MI BND  X00002802
 UP BND  X00002802  0
 MI BND  X00002803
 UP BND  X00002803  0
 MI BND  X00002804
 UP BND  X00002804  0
 MI BND  X00002805
 UP BND  X00002805  0
 MI BND  X00002806
 UP BND  X00002806  0
 MI BND  X00002807
 UP BND  X00002807  0
 MI BND  X00002808
 UP BND  X00002808  0
 MI BND  X00002809
 UP BND  X00002809  0
 MI BND  X00002810
 UP BND  X00002810  0
 MI BND  X00002811
 UP BND  X00002811  0
 MI BND  X00002812
 UP BND  X00002812  0
 MI BND  X00002813
 UP BND  X00002813  0
 MI BND  X00002814
 UP BND  X00002814  0
 MI BND  X00002815
 UP BND  X00002815  0
 MI BND  X00002816
 UP BND  X00002816  0
 MI BND  X00002817
 UP BND  X00002817  0
 MI BND  X00002818
 UP BND  X00002818  0
 MI BND  X00002819
 UP BND  X00002819  0
 MI BND  X00002820
 UP BND  X00002820  0
 MI BND  X00002821
 UP BND  X00002821  0
 MI BND  X00002822
 UP BND  X00002822  0
 MI BND  X00002823
 UP BND  X00002823  0
 MI BND  X00002824
 UP BND  X00002824  0
 MI BND  X00002825
 UP BND  X00002825  0
 MI BND  X00002826
 UP BND  X00002826  0
 MI BND  X00002827
 UP BND  X00002827  0
 MI BND  X00002828
 UP BND  X00002828  0
 MI BND  X00002829
 UP BND  X00002829  0
 MI BND  X00002830
 UP BND  X00002830  0
 MI BND  X00002831
 UP BND  X00002831  0
 MI BND  X00002832
 UP BND  X00002832  0
 MI BND  X00002833
 UP BND  X00002833  0
 MI BND  X00002834
 UP BND  X00002834  0
 MI BND  X00002835
 UP BND  X00002835  0
 MI BND  X00002836
 UP BND  X00002836  0
 MI BND  X00002837
 UP BND  X00002837  0
 MI BND  X00002838
 UP BND  X00002838  0
 MI BND  X00002839
 UP BND  X00002839  0
 MI BND  X00002840
 UP BND  X00002840  0
 MI BND  X00002841
 UP BND  X00002841  0
 MI BND  X00002842
 UP BND  X00002842  0
 MI BND  X00002843
 UP BND  X00002843  0
 MI BND  X00002844
 UP BND  X00002844  0
 MI BND  X00002845
 UP BND  X00002845  0
 MI BND  X00002846
 UP BND  X00002846  0
 MI BND  X00002847
 UP BND  X00002847  0
 MI BND  X00002848
 UP BND  X00002848  0
 MI BND  X00002849
 UP BND  X00002849  0
 MI BND  X00002850
 UP BND  X00002850  0
 MI BND  X00002851
 UP BND  X00002851  0
 MI BND  X00002852
 UP BND  X00002852  0
 MI BND  X00002853
 UP BND  X00002853  0
 MI BND  X00002854
 UP BND  X00002854  0
 MI BND  X00002855
 UP BND  X00002855  0
 MI BND  X00002856
 UP BND  X00002856  0
 MI BND  X00002857
 UP BND  X00002857  0
 MI BND  X00002858
 UP BND  X00002858  0
 MI BND  X00002859
 UP BND  X00002859  0
 MI BND  X00002860
 UP BND  X00002860  0
 MI BND  X00002861
 UP BND  X00002861  0
 MI BND  X00002862
 UP BND  X00002862  0
 MI BND  X00002863
 UP BND  X00002863  0
 MI BND  X00002864
 UP BND  X00002864  0
 MI BND  X00002865
 UP BND  X00002865  0
 MI BND  X00002866
 UP BND  X00002866  0
 MI BND  X00002867
 UP BND  X00002867  0
 MI BND  X00002868
 UP BND  X00002868  0
 MI BND  X00002869
 UP BND  X00002869  0
 MI BND  X00002870
 UP BND  X00002870  0
 MI BND  X00002871
 UP BND  X00002871  0
 MI BND  X00002872
 UP BND  X00002872  0
 MI BND  X00002873
 UP BND  X00002873  0
 MI BND  X00002874
 UP BND  X00002874  0
 MI BND  X00002875
 UP BND  X00002875  0
 MI BND  X00002876
 UP BND  X00002876  0
 MI BND  X00002877
 UP BND  X00002877  0
 MI BND  X00002878
 UP BND  X00002878  0
 MI BND  X00002879
 UP BND  X00002879  0
 MI BND  X00002880
 UP BND  X00002880  0
 MI BND  X00002881
 UP BND  X00002881  0
 MI BND  X00002882
 UP BND  X00002882  0
 MI BND  X00002883
 UP BND  X00002883  0
 MI BND  X00002884
 UP BND  X00002884  0
 MI BND  X00002885
 UP BND  X00002885  0
 MI BND  X00002886
 UP BND  X00002886  0
 MI BND  X00002887
 UP BND  X00002887  0
 MI BND  X00002888
 UP BND  X00002888  0
 MI BND  X00002889
 UP BND  X00002889  0
 MI BND  X00002890
 UP BND  X00002890  0
ENDATA
