* imported from QPLIB (QCL, minimize)
NAME          QPLIB_0010
OBJSENSE
 MIN
ROWS
 N  OBJ
 L  C00000001
 G  C00000002
COLUMNS
    X00000001  OBJ  -0.080000000000000002
    X00000001  C00000001  1
    X00000001  C00000002  0.080000000000000002
    X00000002  OBJ  -0.12
    X00000002  C00000001  1
    X00000002  C00000002  0.12
    X00000003  OBJ  -0.070000000000000007
    X00000003  C00000001  1
    X00000003  C00000002  0.070000000000000007
    X00000004  OBJ  -0.10000000000000001
    X00000004  C00000001  1
    X00000004  C00000002  0.10000000000000001
    X00000005  OBJ  -0.14999999999999999
    X00000005  C00000001  1
    X00000005  C00000002  0.14999999999999999
    X00000006  OBJ  -0.089999999999999997
    X00000006  C00000001  1
    X00000006  C00000002  0.089999999999999997
QUADOBJ
    X00000001  X00000001  0.080000000000000002
    X00000001  X00000002  0.02
    X00000001  X00000003  0.01
    X00000002  X00000002  0.12
    X00000002  X00000003  0.029999999999999999
    X00000003  X00000003  0.059999999999999998
    X00000004  X00000004  0.10000000000000001
    X00000004  X00000005  0.02
    X00000005  X00000005  0.14999999999999999
    X00000005  X00000006  0.040000000000000001
    X00000006  X00000006  0.089999999999999997
RHS
    RHS1  C00000001  1
    RHS1  C00000002  0.10000000000000001
RANGES
    RNG1  C00000001  0
BOUNDS
 UP BND  X00000001  1
 UP BND  X00000002  1
 UP BND  X00000003  1
 UP BND  X00000004  1
 UP BND  X00000005  1
 UP BND  X00000006  1
ENDATA
