* synthetic convex MIQP instance generated by gen_miqp01_instances.py
* objective convention: free MPS QUADOBJ upper triangle; objective c'x + 0.5 x'Qx; listed diagonal entry (i,i,v) contributes 0.5*v*x_i^2
* feasible witness: 1 0 0 0 0 0 1 1 0 1 1 0
NAME          miqp_binquad_n12
OBJSENSE
 MINIMIZE
ROWS
 N  OBJ
 L  C1
 G  C2
COLUMNS
    X1       OBJ  5
    X1       C1  1
    X1       C2  1
    X2       OBJ  4.7
    X2       C1  1
    X2       C2  1
    X3       OBJ  4.4
    X3       C1  1
    X3       C2  1
    X4       OBJ  4.1
    X4       C1  1
    X4       C2  1
    X5       OBJ  3.8
    X5       C1  1
    X5       C2  1
    X6       OBJ  3.5
    X6       C1  1
    X6       C2  1
    X7       OBJ  3.2
    X7       C1  1
    X7       C2  1
    X8       OBJ  2.9
    X8       C1  1
    X8       C2  1
    X9       OBJ  2.6
    X9       C1  1
    X9       C2  1
    X10      OBJ  2.3
    X10      C1  1
    X10      C2  1
    X11      OBJ  2
    X11      C1  1
    X11      C2  1
    X12      OBJ  1.7
    X12      C1  1
    X12      C2  1
QUADOBJ
    X1       X1       2
    X2       X2       2.7000000000000002
    X3       X3       3.3999999999999999
    X4       X4       4.0999999999999996
    X5       X5       4.7999999999999998
    X6       X6       5.5
    X7       X7       6.1999999999999993
    X8       X8       6.8999999999999995
    X9       X9       7.5999999999999996
    X10      X10      8.3000000000000007
    X11      X11      9
    X12      X12      9.6999999999999993
RHS
    RHS1  C1  6
    RHS1  C2  4
BOUNDS
    BV BOUND1  X1
    BV BOUND1  X2
    BV BOUND1  X3
    BV BOUND1  X4
    BV BOUND1  X5
    BV BOUND1  X6
    BV BOUND1  X7
    BV BOUND1  X8
    BV BOUND1  X9
    BV BOUND1  X10
    BV BOUND1  X11
    BV BOUND1  X12
ENDATA
