* synthetic convex MIQP instance generated by gen_miqp01_instances.py
* objective convention: free MPS QUADOBJ upper triangle; objective c'x + 0.5 x'Qx; listed diagonal entry (i,i,v) contributes 0.5*v*x_i^2
* feasible witness: 0 0 0 1 1 1 1 0 0 1 0 1 1 0 1 0
NAME          miqp_dense_block_n16
OBJSENSE
 MINIMIZE
ROWS
 N  OBJ
 L  C1
 G  C2
COLUMNS
    X1       OBJ  0.028164
    X1       C1  1
    X1       C2  1
    X2       OBJ  0.92176
    X2       C1  1
    X2       C2  1
    X3       OBJ  0.338838
    X3       C1  1
    X3       C2  1
    X4       OBJ  0.143406
    X4       C1  1
    X4       C2  1
    X5       OBJ  0.497788
    X5       C1  1
    X5       C2  1
    X6       OBJ  0.524584
    X6       C1  1
    X6       C2  1
    X7       OBJ  0.620262
    X7       C1  1
    X7       C2  1
    X8       OBJ  0.516101
    X8       C1  1
    X8       C2  1
    X9       OBJ  0.050876
    X9       C1  1
    X9       C2  1
    X10      OBJ  0.664377
    X10      C1  1
    X10      C2  1
    X11      OBJ  0.376742
    X11      C1  1
    X11      C2  1
    X12      OBJ  0.792581
    X12      C1  1
    X12      C2  1
    X13      OBJ  0.633918
    X13      C1  1
    X13      C2  1
    X14      OBJ  0.756649
    X14      C1  1
    X14      C2  1
    X15      OBJ  0.827731
    X15      C1  1
    X15      C2  1
    X16      OBJ  0.511635
    X16      C1  1
    X16      C2  1
QUADOBJ
    X1       X1       11
    X1       X2       -8
    X1       X3       7
    X1       X5       3
    X1       X7       -1
    X1       X8       -1
    X1       X9       5
    X1       X10      -7
    X1       X11      -9
    X1       X13      4
    X1       X14      -1
    X1       X15      7
    X1       X16      -5
    X2       X2       13
    X2       X3       -6
    X2       X4       -4
    X2       X5       -4
    X2       X6       6
    X2       X7       -2
    X2       X8       -2
    X2       X9       -10
    X2       X10      6
    X2       X11      8
    X2       X12      4
    X2       X14      -2
    X2       X15      -2
    X3       X3       11
    X3       X4       -3
    X3       X5       -2
    X3       X6       2
    X3       X7       4
    X3       X8       -4
    X3       X9       6
    X3       X10      -4
    X3       X11      -7
    X3       X12      -2
    X3       X13      2
    X3       X15      10
    X3       X16      -2
    X4       X4       6
    X4       X5       4
    X4       X6       -6
    X4       X7       -1
    X4       X8       4
    X4       X9       3
    X4       X10      -1
    X4       X12      -2
    X4       X13      -2
    X4       X14      2
    X4       X15      -6
    X4       X16      2
    X5       X5       7
    X5       X6       -5
    X5       X7       -4
    X5       X8       1
    X5       X9       2
    X5       X10      -4
    X5       X11      -1
    X5       X12      -2
    X5       X14      3
    X5       X15      -3
    X5       X16      -2
    X6       X6       10
    X6       X8       -2
    X6       X9       -6
    X6       X10      2
    X6       X11      -1
    X6       X12      6
    X6       X13      4
    X6       X14      -6
    X6       X15      6
    X6       X16      -3
    X7       X7       7
    X7       X9       4
    X7       X10      2
    X7       X11      -1
    X7       X12      -2
    X7       X13      -2
    X7       X15      2
    X7       X16      4
    X8       X8       10
    X8       X10      2
    X8       X11      -2
    X8       X12      4
    X8       X14      -5
    X8       X15      -7
    X8       X16      3
    X9       X9       11
    X9       X10      -4
    X9       X11      -5
    X9       X12      -6
    X9       X13      -2
    X9       X14      4
    X9       X15      2
    X9       X16      2
    X10      X10      7
    X10      X11      5
    X10      X12      2
    X10      X13      -2
    X10      X14      -2
    X10      X15      -4
    X10      X16      4
    X11      X11      11
    X11      X12      -2
    X11      X13      -4
    X11      X14      4
    X11      X15      -6
    X11      X16      3
    X12      X12      9
    X12      X13      4
    X12      X14      -8
    X12      X16      -2
    X13      X13      5
    X13      X14      -4
    X13      X15      4
    X13      X16      -4
    X14      X14      10
    X14      X15      -1
    X14      X16      1
    X15      X15      14
    X15      X16      -5
    X16      X16      7
RHS
    RHS1  C1  8
    RHS1  C2  8
BOUNDS
    BV BOUND1  X1
    BV BOUND1  X2
    BV BOUND1  X3
    BV BOUND1  X4
    BV BOUND1  X5
    BV BOUND1  X6
    BV BOUND1  X7
    BV BOUND1  X8
    BV BOUND1  X9
    BV BOUND1  X10
    BV BOUND1  X11
    BV BOUND1  X12
    BV BOUND1  X13
    BV BOUND1  X14
    BV BOUND1  X15
    BV BOUND1  X16
ENDATA
