* synthetic convex MIQP instance generated by gen_miqp01_instances.py
* objective convention: free MPS QUADOBJ upper triangle; objective c'x + 0.5 x'Qx; listed diagonal entry (i,i,v) contributes 0.5*v*x_i^2
* feasible witness: 1 1 1 0 1 1 1 1 0 0 0 0 1 1 1 0 1 1 1 0 0 1 1 0 0 0 0 1 0 1 0 1 0 1 1 1 0 0 0 1
NAME          miqp_large_n40
OBJSENSE
 MINIMIZE
ROWS
 N  OBJ
 L  C1
 L  C2
 G  C3
 L  C4
 G  C5
COLUMNS
    X1       OBJ  4
    X1       C1  1
    X1       C3  1
    X1       C4  1
    X1       C5  1
    X2       OBJ  3.92
    X2       C1  1
    X2       C3  1
    X2       C4  2
    X2       C5  2
    X3       OBJ  3.84
    X3       C1  1
    X3       C3  1
    X3       C4  3
    X3       C5  2
    X4       OBJ  3.76
    X4       C1  1
    X4       C3  1
    X4       C4  4
    X4       C5  1
    X5       OBJ  3.68
    X5       C1  1
    X5       C3  1
    X5       C4  5
    X5       C5  2
    X6       OBJ  3.6
    X6       C1  1
    X6       C3  1
    X6       C4  6
    X6       C5  2
    X7       OBJ  3.52
    X7       C1  1
    X7       C3  1
    X7       C4  7
    X7       C5  1
    X8       OBJ  3.44
    X8       C1  1
    X8       C3  1
    X8       C4  8
    X8       C5  2
    X9       OBJ  3.36
    X9       C1  1
    X9       C3  1
    X9       C4  9
    X9       C5  2
    X10      OBJ  3.28
    X10      C1  1
    X10      C3  1
    X10      C4  10
    X10      C5  1
    X11      OBJ  3.2
    X11      C1  1
    X11      C3  1
    X11      C4  11
    X11      C5  2
    X12      OBJ  3.12
    X12      C1  1
    X12      C3  1
    X12      C4  12
    X12      C5  2
    X13      OBJ  3.04
    X13      C1  1
    X13      C3  1
    X13      C4  13
    X13      C5  1
    X14      OBJ  2.96
    X14      C1  1
    X14      C3  1
    X14      C4  14
    X14      C5  2
    X15      OBJ  2.88
    X15      C2  1
    X15      C3  1
    X15      C4  15
    X15      C5  2
    X16      OBJ  2.8
    X16      C2  1
    X16      C3  1
    X16      C4  16
    X16      C5  1
    X17      OBJ  2.72
    X17      C2  1
    X17      C3  1
    X17      C4  17
    X17      C5  2
    X18      OBJ  2.64
    X18      C2  1
    X18      C3  1
    X18      C4  18
    X18      C5  2
    X19      OBJ  2.56
    X19      C2  1
    X19      C3  1
    X19      C4  19
    X19      C5  1
    X20      OBJ  2.48
    X20      C2  1
    X20      C3  1
    X20      C4  20
    X20      C5  2
    X21      OBJ  2.4
    X21      C2  1
    X21      C3  1
    X21      C4  21
    X21      C5  2
    X22      OBJ  2.32
    X22      C2  1
    X22      C3  1
    X22      C4  22
    X22      C5  1
    X23      OBJ  2.24
    X23      C2  1
    X23      C3  1
    X23      C4  23
    X23      C5  2
    X24      OBJ  2.16
    X24      C2  1
    X24      C3  1
    X24      C4  24
    X24      C5  2
    X25      OBJ  2.08
    X25      C2  1
    X25      C3  1
    X25      C4  25
    X25      C5  1
    X26      OBJ  2
    X26      C2  1
    X26      C3  1
    X26      C4  26
    X26      C5  2
    X27      OBJ  1.92
    X27      C2  1
    X27      C3  1
    X27      C4  27
    X27      C5  2
    X28      OBJ  1.84
    X28      C2  1
    X28      C3  1
    X28      C4  28
    X28      C5  1
    X29      OBJ  1.76
    X29      C3  1
    X29      C4  29
    X29      C5  2
    X30      OBJ  1.68
    X30      C3  1
    X30      C4  30
    X30      C5  2
    X31      OBJ  1.6
    X31      C3  1
    X31      C4  31
    X31      C5  1
    X32      OBJ  1.52
    X32      C3  1
    X32      C4  32
    X32      C5  2
    X33      OBJ  1.44
    X33      C3  1
    X33      C4  33
    X33      C5  2
    X34      OBJ  1.36
    X34      C3  1
    X34      C4  34
    X34      C5  1
    X35      OBJ  1.28
    X35      C3  1
    X35      C4  35
    X35      C5  2
    X36      OBJ  1.2
    X36      C3  1
    X36      C4  36
    X36      C5  2
    X37      OBJ  1.12
    X37      C3  1
    X37      C4  37
    X37      C5  1
    X38      OBJ  1.04
    X38      C3  1
    X38      C4  38
    X38      C5  2
    X39      OBJ  0.96
    X39      C3  1
    X39      C4  39
    X39      C5  2
    X40      OBJ  0.88
    X40      C3  1
    X40      C4  40
    X40      C5  1
QUADOBJ
    X1       X1       8
    X1       X2       3
    X1       X3       1
    X1       X4       -5
    X1       X5       1
    X1       X6       1
    X1       X7       4
    X1       X8       1
    X1       X9       -1
    X1       X11      -4
    X1       X12      6
    X1       X13      1
    X1       X14      -4
    X1       X15      4
    X1       X16      -5
    X1       X17      -5
    X1       X18      6
    X1       X19      -4
    X1       X20      -5
    X1       X21      3
    X1       X22      2
    X1       X23      -2
    X1       X24      -4
    X1       X25      2
    X1       X26      -7
    X1       X27      7
    X1       X28      6
    X1       X29      -2
    X1       X30      5
    X1       X31      2
    X1       X32      1
    X1       X33      -1
    X1       X34      -3
    X1       X35      -4
    X1       X36      -6
    X1       X37      3
    X1       X38      6
    X1       X39      -2
    X1       X40      -4
    X2       X2       12
    X2       X3       -1
    X2       X4       1
    X2       X5       -1
    X2       X6       -7
    X2       X7       9
    X2       X8       -1
    X2       X9       -8
    X2       X11      -10
    X2       X12      -1
    X2       X13      2
    X2       X14      -2
    X2       X15      -2
    X2       X16      -6
    X2       X17      3
    X2       X18      5
    X2       X19      -8
    X2       X20      -5
    X2       X21      6
    X2       X22      3
    X2       X23      2
    X2       X24      -3
    X2       X25      -1
    X2       X26      5
    X2       X27      5
    X2       X29      -4
    X2       X30      1
    X2       X31      -7
    X2       X32      3
    X2       X34      2
    X2       X35      -5
    X2       X36      1
    X2       X37      -1
    X2       X38      2
    X2       X39      -8
    X2       X40      -1
    X3       X3       10
    X3       X5       5
    X3       X6       8
    X3       X7       -4
    X3       X8       2
    X3       X9       -1
    X3       X12      3
    X3       X13      -8
    X3       X14      -6
    X3       X15      3
    X3       X17      -1
    X3       X18      -2
    X3       X19      -2
    X3       X20      -1
    X3       X21      1
    X3       X23      10
    X3       X24      -1
    X3       X25      -8
    X3       X26      -4
    X3       X27      -2
    X3       X28      -6
    X3       X29      4
    X3       X30      1
    X3       X32      -2
    X3       X33      -2
    X3       X34      -1
    X3       X35      -2
    X3       X36      -1
    X3       X39      2
    X3       X40      -5
    X4       X4       12
    X4       X5       -1
    X4       X6       -2
    X4       X7       -2
    X4       X8       4
    X4       X9       -2
    X4       X10      -5
    X4       X11      -2
    X4       X12      -8
    X4       X13      -1
    X4       X14      -1
    X4       X15      -7
    X4       X16      -1
    X4       X17      7
    X4       X18      -10
    X4       X19      7
    X4       X20      1
    X4       X21      1
    X4       X23      5
    X4       X24      -1
    X4       X25      -5
    X4       X26      8
    X4       X28      -10
    X4       X29      -6
    X4       X30      -10
    X4       X31      -4
    X4       X32      -7
    X4       X33      -1
    X4       X34      5
    X4       X35      4
    X4       X36      5
    X4       X38      2
    X4       X39      -3
    X5       X5       7
    X5       X6       4
    X5       X7       -1
    X5       X9       2
    X5       X10      4
    X5       X11      4
    X5       X13      -5
    X5       X14      -6
    X5       X16      -2
    X5       X17      1
    X5       X18      -2
    X5       X19      1
    X5       X20      -1
    X5       X21      1
    X5       X22      -1
    X5       X23      3
    X5       X24      2
    X5       X25      -7
    X5       X26      -3
    X5       X27      -2
    X5       X28      -4
    X5       X29      3
    X5       X30      1
    X5       X32      1
    X5       X33      -5
    X5       X34      2
    X5       X35      -5
    X5       X36      -2
    X5       X37      1
    X5       X38      1
    X5       X40      -1
    X6       X6       15
    X6       X7       -11
    X6       X8       -2
    X6       X9       3
    X6       X10      1
    X6       X11      2
    X6       X12      5
    X6       X13      -12
    X6       X14      -3
    X6       X15      2
    X6       X16      -1
    X6       X17      -9
    X6       X18      -4
    X6       X20      5
    X6       X21      3
    X6       X22      1
    X6       X23      8
    X6       X24      -4
    X6       X25      -4
    X6       X26      -7
    X6       X28      -4
    X6       X29      5
    X6       X30      6
    X6       X31      4
    X6       X32      -2
    X6       X33      2
    X6       X34      -4
    X6       X35      -3
    X6       X36      -6
    X6       X37      -3
    X6       X38      3
    X6       X39      9
    X6       X40      -4
    X7       X7       14
    X7       X8       3
    X7       X9       -4
    X7       X11      -4
    X7       X13      10
    X7       X14      -2
    X7       X15      2
    X7       X16      -2
    X7       X17      6
    X7       X18      8
    X7       X19      -4
    X7       X20      -9
    X7       X21      -1
    X7       X23      -6
    X7       X24      2
    X7       X25      2
    X7       X26      1
    X7       X27      3
    X7       X28      6
    X7       X29      -4
    X7       X30      -2
    X7       X31      -3
    X7       X32      3
    X7       X33      -4
    X7       X34      2
    X7       X35      -1
    X7       X36      2
    X7       X37      5
    X7       X39      -10
    X8       X8       15
    X8       X9       1
    X8       X10      -9
    X8       X11      2
    X8       X12      1
    X8       X13      8
    X8       X14      -5
    X8       X15      6
    X8       X16      5
    X8       X17      7
    X8       X18      -2
    X8       X19      8
    X8       X20      -9
    X8       X21      -9
    X8       X22      -3
    X8       X24      2
    X8       X25      -2
    X8       X26      -5
    X8       X29      -5
    X8       X30      -12
    X8       X31      4
    X8       X32      -10
    X8       X33      -6
    X8       X35      11
    X8       X36      4
    X8       X37      11
    X8       X38      1
    X8       X39      -5
    X8       X40      -6
    X9       X9       9
    X9       X10      2
    X9       X11      10
    X9       X13      1
    X9       X15      1
    X9       X16      3
    X9       X17      -1
    X9       X18      -3
    X9       X19      8
    X9       X20      2
    X9       X21      -5
    X9       X22      -3
    X9       X23      -6
    X9       X24      4
    X9       X25      1
    X9       X26      -5
    X9       X27      -3
    X9       X28      2
    X9       X29      2
    X9       X30      -1
    X9       X31      6
    X9       X32      -1
    X9       X33      -3
    X9       X35      2
    X9       X36      -2
    X9       X37      3
    X9       X39      4
    X9       X40      2
    X10      X10      11
    X10      X11      4
    X10      X12      -1
    X10      X13      -5
    X10      X15      -3
    X10      X16      -3
    X10      X17      -2
    X10      X18      2
    X10      X19      -4
    X10      X20      4
    X10      X21      4
    X10      X23      -2
    X10      X24      3
    X10      X25      -2
    X10      X26      1
    X10      X27      -3
    X10      X29      6
    X10      X30      8
    X10      X31      -2
    X10      X32      9
    X10      X33      -1
    X10      X34      2
    X10      X35      -10
    X10      X36      -3
    X10      X37      -5
    X10      X38      -2
    X10      X39      2
    X10      X40      5
    X11      X11      17
    X11      X12      -2
    X11      X13      2
    X11      X15      2
    X11      X16      8
    X11      X17      4
    X11      X18      -4
    X11      X19      10
    X11      X20      2
    X11      X21      -10
    X11      X22      -6
    X11      X23      -6
    X11      X24      10
    X11      X25      -2
    X11      X26      -4
    X11      X27      -10
    X11      X29      6
    X11      X30      -4
    X11      X31      6
    X11      X33      -6
    X11      X34      2
    X11      X35      4
    X11      X36      2
    X11      X37      4
    X11      X38      -6
    X11      X39      4
    X11      X40      4
    X12      X12      11
    X12      X14      -1
    X12      X15      9
    X12      X16      1
    X12      X17      -8
    X12      X18      8
    X12      X19      -6
    X12      X20      -3
    X12      X21      -1
    X12      X22      1
    X12      X24      -3
    X12      X25      4
    X12      X26      -10
    X12      X27      3
    X12      X28      8
    X12      X29      3
    X12      X30      7
    X12      X31      5
    X12      X32      1
    X12      X33      2
    X12      X34      -7
    X12      X36      -5
    X12      X37      2
    X12      X38      1
    X12      X39      3
    X12      X40      -5
    X13      X13      18
    X13      X14      3
    X13      X15      5
    X13      X16      6
    X13      X17      7
    X13      X18      6
    X13      X19      4
    X13      X20      -8
    X13      X21      -10
    X13      X22      -3
    X13      X23      -12
    X13      X24      5
    X13      X25      8
    X13      X26      -1
    X13      X28      10
    X13      X29      -5
    X13      X30      -8
    X13      X31      3
    X13      X32      -2
    X13      X33      -3
    X13      X35      10
    X13      X36      5
    X13      X37      9
    X13      X38      -3
    X13      X39      -7
    X13      X40      1
    X14      X14      11
    X14      X15      -1
    X14      X16      5
    X14      X17      -2
    X14      X18      2
    X14      X19      -2
    X14      X20      6
    X14      X21      -2
    X14      X23      -4
    X14      X24      1
    X14      X25      8
    X14      X26      5
    X14      X27      -3
    X14      X28      4
    X14      X29      2
    X14      X30      2
    X14      X32      3
    X14      X33      7
    X14      X34      -2
    X14      X35      4
    X14      X36      3
    X14      X37      -5
    X14      X38      -6
    X14      X39      4
    X14      X40      5
    X15      X15      13
    X15      X16      7
    X15      X17      -2
    X15      X18      8
    X15      X19      -3
    X15      X20      -6
    X15      X21      -8
    X15      X22      -2
    X15      X23      -1
    X15      X24      2
    X15      X25      3
    X15      X26      -10
    X15      X27      -2
    X15      X28      8
    X15      X29      4
    X15      X30      1
    X15      X31      6
    X15      X32      -1
    X15      X33      -1
    X15      X34      -6
    X15      X35      6
    X15      X37      6
    X15      X38      -4
    X15      X39      1
    X15      X40      -5
    X16      X16      15
    X16      X17      5
    X16      X18      1
    X16      X19      3
    X16      X21      -13
    X16      X22      -5
    X16      X23      -1
    X16      X24      8
    X16      X25      2
    X16      X26      -1
    X16      X27      -11
    X16      X28      2
    X16      X29      6
    X16      X30      -6
    X16      X31      4
    X16      X32      -2
    X16      X34      -2
    X16      X35      12
    X16      X36      8
    X16      X37      3
    X16      X38      -12
    X16      X39      3
    X16      X40      1
    X17      X17      16
    X17      X18      -4
    X17      X19      6
    X17      X20      -5
    X17      X21      -7
    X17      X22      -4
    X17      X24      8
    X17      X25      -6
    X17      X26      7
    X17      X27      -7
    X17      X28      -6
    X17      X29      -2
    X17      X30      -13
    X17      X31      -4
    X17      X32      -3
    X17      X33      -7
    X17      X34      7
    X17      X35      6
    X17      X36      10
    X17      X37      5
    X17      X38      -6
    X17      X39      -8
    X17      X40      2
    X18      X18      15
    X18      X19      -11
    X18      X20      -5
    X18      X21      -1
    X18      X22      1
    X18      X23      -5
    X18      X25      7
    X18      X26      -5
    X18      X27      2
    X18      X28      12
    X18      X29      3
    X18      X30      8
    X18      X31      1
    X18      X32      7
    X18      X33      2
    X18      X34      -5
    X18      X35      -2
    X18      X36      -2
    X18      X37      1
    X18      X38      -3
    X18      X39      -2
    X18      X40      -1
    X19      X19      18
    X19      X21      -7
    X19      X22      -4
    X19      X23      -5
    X19      X24      4
    X19      X25      -2
    X19      X26      -1
    X19      X27      -2
    X19      X28      -4
    X19      X29      -5
    X19      X30      -12
    X19      X31      5
    X19      X32      -9
    X19      X33      -6
    X19      X34      4
    X19      X35      8
    X19      X36      2
    X19      X37      7
    X19      X38      3
    X19      X40      1
    X20      X20      12
    X20      X21      4
    X20      X22      1
    X20      X23      2
    X20      X24      -1
    X20      X25      1
    X20      X26      5
    X20      X27      -3
    X20      X28      -4
    X20      X29      4
    X20      X30      5
    X20      X31      -1
    X20      X32      3
    X20      X33      6
    X20      X35      -3
    X20      X36      -1
    X20      X37      -9
    X20      X38      -2
    X20      X39      8
    X20      X40      5
    X21      X21      16
    X21      X22      6
    X21      X23      5
    X21      X24      -9
    X21      X25      -2
    X21      X26      4
    X21      X27      9
    X21      X28      -4
    X21      X29      -3
    X21      X30      9
    X21      X31      -6
    X21      X32      4
    X21      X33      4
    X21      X34      1
    X21      X35      -13
    X21      X36      -7
    X21      X37      -8
    X21      X38      9
    X22      X22      4
    X22      X23      2
    X22      X24      -5
    X22      X25      1
    X22      X26      1
    X22      X27      5
    X22      X29      -2
    X22      X30      4
    X22      X31      -2
    X22      X32      1
    X22      X33      3
    X22      X34      -1
    X22      X35      -4
    X22      X36      -3
    X22      X37      -3
    X22      X38      4
    X22      X40      -1
    X23      X23      18
    X23      X24      -4
    X23      X25      -10
    X23      X26      3
    X23      X27      -2
    X23      X28      -12
    X23      X29      3
    X23      X31      -5
    X23      X32      -3
    X23      X33      2
    X23      X35      -2
    X23      X36      2
    X23      X37      -5
    X23      X38      -1
    X23      X39      2
    X23      X40      -5
    X24      X24      11
    X24      X25      -2
    X24      X26      1
    X24      X27      -10
    X24      X29      5
    X24      X30      -5
    X24      X31      1
    X24      X32      2
    X24      X33      -5
    X24      X34      3
    X24      X35      4
    X24      X36      6
    X24      X37      3
    X24      X38      -9
    X24      X39      -1
    X24      X40      4
    X25      X25      14
    X25      X26      -2
    X25      X27      4
    X25      X28      12
    X25      X29      -2
    X25      X30      4
    X25      X31      4
    X25      X32      2
    X25      X33      6
    X25      X34      -5
    X25      X35      4
    X25      X36      -2
    X25      X39      2
    X25      X40      2
    X26      X26      16
    X26      X27      -3
    X26      X28      -8
    X26      X29      -2
    X26      X30      -4
    X26      X31      -9
    X26      X32      2
    X26      X33      3
    X26      X34      6
    X26      X35      -1
    X26      X36      7
    X26      X37      -7
    X26      X38      -4
    X26      X39      -3
    X26      X40      6
    X27      X27      15
    X27      X28      4
    X27      X29      -9
    X27      X30      4
    X27      X32      -2
    X27      X33      2
    X27      X34      -2
    X27      X35      -5
    X27      X36      -8
    X27      X37      1
    X27      X38      13
    X27      X39      -3
    X27      X40      -4
    X28      X28      17
    X28      X30      6
    X28      X31      6
    X28      X32      4
    X28      X33      2
    X28      X34      -6
    X28      X35      2
    X28      X36      -4
    X28      X37      4
    X29      X29      12
    X29      X30      6
    X29      X31      1
    X29      X32      6
    X29      X33      1
    X29      X34      -2
    X29      X35      -2
    X29      X36      1
    X29      X37      -4
    X29      X38      -9
    X29      X39      6
    X29      X40      2
    X30      X30      18
    X30      X32      10
    X30      X33      6
    X30      X34      -5
    X30      X35      -12
    X30      X36      -9
    X30      X37      -8
    X30      X38      2
    X30      X39      6
    X30      X40      1
    X31      X31      9
    X31      X32      -3
    X31      X33      -1
    X31      X34      -4
    X31      X35      5
    X31      X36      -3
    X31      X37      5
    X31      X38      1
    X31      X39      4
    X31      X40      -2
    X32      X32      12
    X32      X33      2
    X32      X35      -9
    X32      X36      -2
    X32      X37      -6
    X32      X38      -4
    X32      X39      1
    X32      X40      5
    X33      X33      10
    X33      X34      -4
    X33      X36      -1
    X33      X37      -7
    X33      X38      -1
    X33      X39      5
    X33      X40      1
    X34      X34      7
    X34      X35      -2
    X34      X36      3
    X34      X39      -4
    X34      X40      3
    X35      X35      18
    X35      X36      8
    X35      X37      7
    X35      X38      -6
    X35      X40      -2
    X36      X36      11
    X36      X37      1
    X36      X38      -9
    X36      X39      -3
    X36      X40      2
    X37      X37      12
    X37      X38      2
    X37      X39      -5
    X37      X40      -4
    X38      X38      16
    X38      X39      -2
    X38      X40      -4
    X39      X39      11
    X39      X40      1
    X40      X40      8
RHS
    RHS1  C1  11
    RHS1  C2  9
    RHS1  C3  19
    RHS1  C4  668
    RHS1  C5  11
BOUNDS
    BV BOUND1  X1
    BV BOUND1  X2
    BV BOUND1  X3
    BV BOUND1  X4
    BV BOUND1  X5
    BV BOUND1  X6
    BV BOUND1  X7
    BV BOUND1  X8
    BV BOUND1  X9
    BV BOUND1  X10
    BV BOUND1  X11
    BV BOUND1  X12
    BV BOUND1  X13
    BV BOUND1  X14
    BV BOUND1  X15
    BV BOUND1  X16
    BV BOUND1  X17
    BV BOUND1  X18
    BV BOUND1  X19
    BV BOUND1  X20
    BV BOUND1  X21
    BV BOUND1  X22
    BV BOUND1  X23
    BV BOUND1  X24
    BV BOUND1  X25
    BV BOUND1  X26
    BV BOUND1  X27
    BV BOUND1  X28
    BV BOUND1  X29
    BV BOUND1  X30
    BV BOUND1  X31
    BV BOUND1  X32
    BV BOUND1  X33
    BV BOUND1  X34
    BV BOUND1  X35
    BV BOUND1  X36
    BV BOUND1  X37
    BV BOUND1  X38
    BV BOUND1  X39
    BV BOUND1  X40
ENDATA
