* synthetic convex MIQP instance generated by gen_miqp01_instances.py
* objective convention: free MPS QUADOBJ upper triangle; objective c'x + 0.5 x'Qx; listed diagonal entry (i,i,v) contributes 0.5*v*x_i^2
* feasible witness: 1 0 0 0 0 0 1 1 0 0 1 1 1 0 1 0 0 1
NAME          miqp_maximize_n18
OBJSENSE
 MAXIMIZE
ROWS
 N  OBJ
 L  C1
 G  C2
 L  C3
COLUMNS
    X1       OBJ  3
    X1       C1  1
    X1       C2  1
    X1       C3  1
    X2       OBJ  4
    X2       C1  1
    X2       C3  2
    X3       OBJ  5
    X3       C1  1
    X3       C2  1
    X3       C3  3
    X4       OBJ  6
    X4       C1  1
    X4       C3  4
    X5       OBJ  7
    X5       C1  1
    X5       C2  1
    X5       C3  5
    X6       OBJ  3
    X6       C1  1
    X6       C3  6
    X7       OBJ  4
    X7       C1  1
    X7       C2  1
    X7       C3  7
    X8       OBJ  5
    X8       C1  1
    X8       C3  8
    X9       OBJ  6
    X9       C1  1
    X9       C2  1
    X9       C3  9
    X10      OBJ  7
    X10      C1  1
    X10      C3  10
    X11      OBJ  3
    X11      C1  1
    X11      C2  1
    X11      C3  11
    X12      OBJ  4
    X12      C1  1
    X12      C3  12
    X13      OBJ  5
    X13      C1  1
    X13      C2  1
    X13      C3  13
    X14      OBJ  6
    X14      C1  1
    X14      C3  14
    X15      OBJ  7
    X15      C1  1
    X15      C2  1
    X15      C3  15
    X16      OBJ  3
    X16      C1  1
    X16      C3  16
    X17      OBJ  4
    X17      C1  1
    X17      C2  1
    X17      C3  17
    X18      OBJ  5
    X18      C1  1
    X18      C3  18
QUADOBJ
    X1       X1       -3
    X1       X2       -2
    X1       X4       1
    X1       X6       2
    X1       X7       -1
    X1       X8       -1
    X1       X9       1
    X1       X10      -1
    X1       X11      1
    X1       X12      2
    X1       X14      -1
    X1       X15      -1
    X1       X16      -2
    X1       X17      -1
    X1       X18      -1
    X2       X2       -12
    X2       X3       -2
    X2       X4       7
    X2       X5       7
    X2       X6       2
    X2       X7       2
    X2       X8       -7
    X2       X9       1
    X2       X10      -3
    X2       X11      3
    X2       X12      -2
    X2       X13      -2
    X2       X14      -5
    X2       X15      2
    X2       X16      -5
    X2       X17      -1
    X2       X18      -3
    X3       X3       -6
    X3       X5       4
    X3       X6       2
    X3       X7       4
    X3       X8       -4
    X3       X9       -4
    X3       X10      -4
    X3       X12      -4
    X3       X14      -4
    X3       X16      -4
    X3       X17      -2
    X3       X18      -2
    X4       X4       -8
    X4       X5       -5
    X4       X6       1
    X4       X7       -1
    X4       X8       4
    X4       X9       -2
    X4       X11      -2
    X4       X12      2
    X4       X13      2
    X4       X14      2
    X4       X15      -3
    X4       X16      1
    X4       X17      -1
    X4       X18      1
    X5       X5       -11
    X5       X6       1
    X5       X7       -6
    X5       X8       7
    X5       X9       3
    X5       X10      3
    X5       X11      -1
    X5       X12      8
    X5       X13      2
    X5       X14      5
    X5       X15      -4
    X5       X16      3
    X5       X18      2
    X6       X6       -12
    X6       X7       -2
    X6       X8       -1
    X6       X9       3
    X6       X10      7
    X6       X11      -3
    X6       X12      -6
    X6       X13      -6
    X6       X14      1
    X6       X15      6
    X6       X16      9
    X6       X17      5
    X6       X18      3
    X7       X7       -11
    X7       X8       1
    X7       X9       7
    X7       X10      5
    X7       X11      -1
    X7       X12      6
    X7       X13      -4
    X7       X14      1
    X7       X15      -1
    X7       X16      4
    X7       X17      1
    X7       X18      1
    X8       X8       -12
    X8       X10      -2
    X8       X12      -6
    X8       X13      -6
    X8       X14      -8
    X8       X15      3
    X8       X16      -3
    X8       X17      -1
    X8       X18      -3
    X9       X9       -9
    X9       X10      -5
    X9       X12      -4
    X9       X13      4
    X9       X14      -1
    X9       X15      -1
    X9       X16      -4
    X9       X17      -2
    X9       X18      -1
    X10      X10      -9
    X10      X11      2
    X10      X13      4
    X10      X14      -3
    X10      X15      -3
    X10      X16      -8
    X10      X17      -4
    X10      X18      -3
    X11      X11      -4
    X11      X12      -2
    X11      X13      -2
    X11      X15      1
    X11      X16      3
    X11      X17      1
    X11      X18      1
    X12      X12      -14
    X12      X13      -4
    X12      X14      -4
    X12      X15      6
    X12      X16      2
    X12      X17      2
    X13      X13      -10
    X13      X14      -4
    X13      X15      4
    X13      X16      4
    X13      X17      2
    X14      X14      -9
    X14      X15      1
    X14      X16      -4
    X14      X17      -2
    X14      X18      -3
    X15      X15      -7
    X15      X16      -4
    X15      X17      -3
    X15      X18      -1
    X16      X16      -12
    X16      X17      -5
    X16      X18      -4
    X17      X17      -5
    X17      X18      -2
    X18      X18      -4
RHS
    RHS1  C1  10
    RHS1  C2  4
    RHS1  C3  145
BOUNDS
    BV BOUND1  X1
    BV BOUND1  X2
    BV BOUND1  X3
    BV BOUND1  X4
    BV BOUND1  X5
    BV BOUND1  X6
    BV BOUND1  X7
    BV BOUND1  X8
    BV BOUND1  X9
    BV BOUND1  X10
    BV BOUND1  X11
    BV BOUND1  X12
    BV BOUND1  X13
    BV BOUND1  X14
    BV BOUND1  X15
    BV BOUND1  X16
    BV BOUND1  X17
    BV BOUND1  X18
ENDATA
