* synthetic convex MIQP instance generated by gen_miqp01_instances.py
* objective convention: free MPS QUADOBJ upper triangle; objective c'x + 0.5 x'Qx; listed diagonal entry (i,i,v) contributes 0.5*v*x_i^2
* feasible witness: 1 1 1 0 1 1 0 0 1 0 1 1 0 1 0 0 1 0 1 0
NAME          miqp_coupling_n20
OBJSENSE
 MINIMIZE
ROWS
 N  OBJ
 L  C1
 L  C2
 G  C3
 L  C4
COLUMNS
    X1       OBJ  2.28787
    X1       C1  1
    X1       C3  1
    X1       C4  1
    X2       OBJ  2.13216
    X2       C1  1
    X2       C3  1
    X2       C4  2
    X3       OBJ  8.32017
    X3       C1  1
    X3       C3  1
    X3       C4  3
    X4       OBJ  3.96369
    X4       C1  1
    X4       C3  1
    X4       C4  4
    X5       OBJ  6.60295
    X5       C1  1
    X5       C3  1
    X5       C4  5
    X6       OBJ  8.28483
    X6       C1  1
    X6       C3  1
    X6       C4  6
    X7       OBJ  6.20599
    X7       C1  1
    X7       C3  1
    X7       C4  7
    X8       OBJ  4.98779
    X8       C1  1
    X8       C3  1
    X8       C4  8
    X9       OBJ  3.17654
    X9       C2  1
    X9       C3  1
    X9       C4  9
    X10      OBJ  5.87076
    X10      C2  1
    X10      C3  1
    X10      C4  10
    X11      OBJ  7.91175
    X11      C2  1
    X11      C3  1
    X11      C4  11
    X12      OBJ  8.17799
    X12      C2  1
    X12      C3  1
    X12      C4  12
    X13      OBJ  7.10418
    X13      C2  1
    X13      C3  1
    X13      C4  13
    X14      OBJ  1.10852
    X14      C2  1
    X14      C3  1
    X14      C4  14
    X15      OBJ  8.02224
    X15      C2  1
    X15      C3  1
    X15      C4  15
    X16      OBJ  4.59936
    X16      C2  1
    X16      C3  1
    X16      C4  16
    X17      OBJ  2.66474
    X17      C3  1
    X17      C4  17
    X18      OBJ  4.02773
    X18      C3  1
    X18      C4  18
    X19      OBJ  1.66653
    X19      C3  1
    X19      C4  19
    X20      OBJ  6.07389
    X20      C3  1
    X20      C4  20
QUADOBJ
    X1       X1       14
    X1       X2       -6
    X1       X3       5
    X1       X4       1
    X1       X5       2
    X1       X6       -1
    X1       X7       9
    X1       X8       -1
    X1       X9       2
    X1       X10      1
    X1       X11      1
    X1       X12      -1
    X1       X13      -5
    X1       X14      -1
    X1       X15      3
    X1       X16      -3
    X1       X17      -5
    X1       X18      -4
    X1       X19      3
    X1       X20      -7
    X2       X2       13
    X2       X3       -11
    X2       X4       -1
    X2       X5       -6
    X2       X6       -4
    X2       X7       -2
    X2       X8       -2
    X2       X9       -1
    X2       X10      -2
    X2       X11      -5
    X2       X12      -2
    X2       X13      1
    X2       X14      5
    X2       X15      -2
    X2       X16      3
    X2       X17      9
    X2       X18      10
    X2       X19      -6
    X3       X3       16
    X3       X4       1
    X3       X5       7
    X3       X6       4
    X3       X8       3
    X3       X9       1
    X3       X10      2
    X3       X11      6
    X3       X12      4
    X3       X13      1
    X3       X14      -5
    X3       X16      -2
    X3       X17      -10
    X3       X18      -10
    X3       X19      7
    X3       X20      2
    X4       X4       13
    X4       X6       5
    X4       X7       4
    X4       X8       -3
    X4       X9       8
    X4       X10      7
    X4       X11      -4
    X4       X12      -8
    X4       X13      -6
    X4       X14      -4
    X4       X15      -5
    X4       X16      -2
    X4       X17      6
    X4       X18      -4
    X4       X19      -2
    X4       X20      -5
    X5       X5       7
    X5       X6       3
    X5       X7       -1
    X5       X8       2
    X5       X10      1
    X5       X11      4
    X5       X12      2
    X5       X13      1
    X5       X14      -3
    X5       X15      1
    X5       X16      -1
    X5       X17      -6
    X5       X18      -6
    X5       X19      4
    X5       X20      2
    X6       X6       13
    X6       X7       -3
    X6       X8       1
    X6       X9       4
    X6       X10      6
    X6       X11      4
    X6       X12      -7
    X6       X13      -1
    X6       X14      -5
    X6       X15      2
    X6       X17      -2
    X6       X18      -8
    X6       X19      2
    X6       X20      2
    X7       X7       17
    X7       X8       -5
    X7       X9       3
    X7       X10      1
    X7       X11      -7
    X7       X12      -3
    X7       X13      -11
    X7       X14      -3
    X7       X15      1
    X7       X16      -8
    X7       X17      3
    X7       X18      -4
    X7       X19      -2
    X7       X20      -12
    X8       X8       6
    X8       X9       -2
    X8       X10      -1
    X8       X11      5
    X8       X12      3
    X8       X13      5
    X8       X14      1
    X8       X15      1
    X8       X16      3
    X8       X17      -5
    X8       X19      3
    X8       X20      5
    X9       X9       10
    X9       X10      6
    X9       X11      -2
    X9       X12      -7
    X9       X13      -4
    X9       X14      -2
    X9       X15      -4
    X9       X17      4
    X9       X18      -2
    X9       X19      -1
    X9       X20      -4
    X10      X10      9
    X10      X12      -7
    X10      X13      -3
    X10      X14      -3
    X10      X15      -2
    X10      X17      2
    X10      X18      -4
    X10      X20      -2
    X11      X11      13
    X11      X12      2
    X11      X13      7
    X11      X14      1
    X11      X15      4
    X11      X16      5
    X11      X17      -10
    X11      X18      -2
    X11      X19      6
    X11      X20      7
    X12      X12      16
    X12      X13      6
    X12      X14      2
    X12      X15      -1
    X12      X17      -6
    X12      X18      2
    X12      X19      3
    X12      X20      5
    X13      X13      14
    X13      X14      5
    X13      X15      -1
    X13      X16      8
    X13      X17      -5
    X13      X18      6
    X13      X19      3
    X13      X20      10
    X14      X14      10
    X14      X15      -1
    X14      X16      6
    X14      X17      1
    X14      X18      10
    X14      X19      -1
    X14      X20      2
    X15      X15      13
    X15      X16      -2
    X15      X17      -6
    X15      X18      -4
    X15      X19      2
    X16      X16      12
    X16      X17      -1
    X16      X18      8
    X16      X19      1
    X16      X20      6
    X17      X17      17
    X17      X18      6
    X17      X19      -8
    X17      X20      -5
    X18      X18      19
    X18      X19      -4
    X18      X20      2
    X19      X19      8
    X19      X20      3
    X20      X20      14
RHS
    RHS1  C1  6
    RHS1  C2  5
    RHS1  C3  9
    RHS1  C4  139
BOUNDS
    BV BOUND1  X1
    BV BOUND1  X2
    BV BOUND1  X3
    BV BOUND1  X4
    BV BOUND1  X5
    BV BOUND1  X6
    BV BOUND1  X7
    BV BOUND1  X8
    BV BOUND1  X9
    BV BOUND1  X10
    BV BOUND1  X11
    BV BOUND1  X12
    BV BOUND1  X13
    BV BOUND1  X14
    BV BOUND1  X15
    BV BOUND1  X16
    BV BOUND1  X17
    BV BOUND1  X18
    BV BOUND1  X19
    BV BOUND1  X20
ENDATA
