NAME CRUDE_BLENDING_LARGE
ROWS
 N COST
 L SAVL_STR_00_0
 L SAVL_STR_01_0
 L SAVL_STR_02_0
 L SAVL_STR_03_0
 L SAVL_STR_04_0
 L SAVL_STR_05_0
 L SAVL_STR_06_0
 L SAVL_STR_07_0
 L SAVL_STR_08_0
 L SAVL_STR_09_0
 L SAVL_STR_10_0
 L SAVL_STR_11_0
 L SAVL_STR_12_0
 L SAVL_STR_13_0
 L SAVL_STR_14_0
 L SAVL_STR_15_0
 L SAVL_STR_16_0
 L SAVL_STR_17_0
 L SAVL_STR_18_0
 L SAVL_STR_19_0
 L SAVL_STR_20_0
 L SAVL_STR_21_0
 L SAVL_STR_22_0
 L SAVL_STR_23_0
 L SAVL_STR_24_0
 L SAVL_STR_25_0
 L SAVL_STR_26_0
 L SAVL_STR_27_0
 L SAVL_STR_28_0
 L SAVL_STR_29_0
 L SAVL_STR_30_0
 L SAVL_STR_31_0
 L SAVL_STR_32_0
 L SAVL_STR_33_0
 L SAVL_STR_34_0
 L SAVL_STR_35_0
 L SAVL_STR_36_0
 L SAVL_STR_37_0
 L SAVL_STR_38_0
 L SAVL_STR_39_0
 L SAVL_STR_40_0
 L SAVL_STR_41_0
 L SAVL_STR_42_0
 L SAVL_STR_43_0
 L SAVL_STR_44_0
 L SAVL_STR_45_0
 L SAVL_STR_46_0
 L SAVL_STR_47_0
 L SAVL_STR_48_0
 L SAVL_STR_49_0
 G PDEM_MS91_0
 G Q_MS91_OCTANE_0
 L Q_MS91_SULFUR_0
 G Q_MS91_CETANE_0
 L Q_MS91_DENSITY_0
 L Q_MS91_RVP_0
 G Q_MS91_FLASH_0
 G PDEM_MS95_0
 G Q_MS95_OCTANE_0
 L Q_MS95_SULFUR_0
 G Q_MS95_CETANE_0
 L Q_MS95_DENSITY_0
 L Q_MS95_RVP_0
 G Q_MS95_FLASH_0
 G PDEM_HSD_BS6_0
 G Q_HSD_BS6_OCTANE_0
 L Q_HSD_BS6_SULFUR_0
 G Q_HSD_BS6_CETANE_0
 L Q_HSD_BS6_DENSITY_0
 L Q_HSD_BS6_RVP_0
 G Q_HSD_BS6_FLASH_0
 G PDEM_JET_A1_0
 G Q_JET_A1_OCTANE_0
 L Q_JET_A1_SULFUR_0
 G Q_JET_A1_CETANE_0
 L Q_JET_A1_DENSITY_0
 L Q_JET_A1_RVP_0
 G Q_JET_A1_FLASH_0
 G PDEM_MGO_0
 G Q_MGO_OCTANE_0
 L Q_MGO_SULFUR_0
 G Q_MGO_CETANE_0
 L Q_MGO_DENSITY_0
 L Q_MGO_RVP_0
 G Q_MGO_FLASH_0
 G PDEM_FO380_0
 G Q_FO380_OCTANE_0
 L Q_FO380_SULFUR_0
 G Q_FO380_CETANE_0
 L Q_FO380_DENSITY_0
 L Q_FO380_RVP_0
 G Q_FO380_FLASH_0
COLUMNS
    X_00_MS91_0    COST      70.38      SAVL_STR_00_0 1.0
    X_00_MS91_0    PDEM_MS91_0 1.0
    X_00_MS91_0    Q_MS91_OCTANE_0 0.9185     Q_MS91_SULFUR_0 0.0490    
    X_00_MS91_0    Q_MS91_CETANE_0 0.4473     Q_MS91_DENSITY_0 0.7505    
    X_00_MS91_0    Q_MS91_RVP_0 1.6353     Q_MS91_FLASH_0 -0.8478   
    X_00_MS95_0    COST      70.38      SAVL_STR_00_0 1.0
    X_00_MS95_0    PDEM_MS95_0 1.0
    X_00_MS95_0    Q_MS95_OCTANE_0 0.9185     Q_MS95_SULFUR_0 0.0490    
    X_00_MS95_0    Q_MS95_CETANE_0 0.4473     Q_MS95_DENSITY_0 0.7505    
    X_00_MS95_0    Q_MS95_RVP_0 1.6353     Q_MS95_FLASH_0 -0.8478   
    X_00_HSD_BS6_0 COST      70.38      SAVL_STR_00_0 1.0
    X_00_HSD_BS6_0 PDEM_HSD_BS6_0 1.0
    X_00_HSD_BS6_0 Q_HSD_BS6_OCTANE_0 0.9185     Q_HSD_BS6_SULFUR_0 0.0490    
    X_00_HSD_BS6_0 Q_HSD_BS6_CETANE_0 0.4473     Q_HSD_BS6_DENSITY_0 0.7505    
    X_00_HSD_BS6_0 Q_HSD_BS6_RVP_0 1.6353     Q_HSD_BS6_FLASH_0 -0.8478   
    X_00_JET_A1_0  COST      70.38      SAVL_STR_00_0 1.0
    X_00_JET_A1_0  PDEM_JET_A1_0 1.0
    X_00_JET_A1_0  Q_JET_A1_OCTANE_0 0.9185     Q_JET_A1_SULFUR_0 0.0490    
    X_00_JET_A1_0  Q_JET_A1_CETANE_0 0.4473     Q_JET_A1_DENSITY_0 0.7505    
    X_00_JET_A1_0  Q_JET_A1_RVP_0 1.6353     Q_JET_A1_FLASH_0 -0.8478   
    X_00_MGO_0     COST      70.38      SAVL_STR_00_0 1.0
    X_00_MGO_0     PDEM_MGO_0 1.0
    X_00_MGO_0     Q_MGO_OCTANE_0 0.9185     Q_MGO_SULFUR_0 0.0490    
    X_00_MGO_0     Q_MGO_CETANE_0 0.4473     Q_MGO_DENSITY_0 0.7505    
    X_00_MGO_0     Q_MGO_RVP_0 1.6353     Q_MGO_FLASH_0 -0.8478   
    X_00_FO380_0   COST      70.38      SAVL_STR_00_0 1.0
    X_00_FO380_0   PDEM_FO380_0 1.0
    X_00_FO380_0   Q_FO380_OCTANE_0 0.9185     Q_FO380_SULFUR_0 0.0490    
    X_00_FO380_0   Q_FO380_CETANE_0 0.4473     Q_FO380_DENSITY_0 0.7505    
    X_00_FO380_0   Q_FO380_RVP_0 1.6353     Q_FO380_FLASH_0 -0.8478   
    X_01_MS91_0    COST      75.45      SAVL_STR_01_0 1.0
    X_01_MS91_0    PDEM_MS91_0 1.0
    X_01_MS91_0    Q_MS91_OCTANE_0 0.3828     Q_MS91_SULFUR_0 0.2269    
    X_01_MS91_0    Q_MS91_CETANE_0 0.8453     Q_MS91_DENSITY_0 0.7920    
    X_01_MS91_0    Q_MS91_RVP_0 0.1700     Q_MS91_FLASH_0 0.9635    
    X_01_MS95_0    COST      75.45      SAVL_STR_01_0 1.0
    X_01_MS95_0    PDEM_MS95_0 1.0
    X_01_MS95_0    Q_MS95_OCTANE_0 0.3828     Q_MS95_SULFUR_0 0.2269    
    X_01_MS95_0    Q_MS95_CETANE_0 0.8453     Q_MS95_DENSITY_0 0.7920    
    X_01_MS95_0    Q_MS95_RVP_0 0.1700     Q_MS95_FLASH_0 0.9635    
    X_01_HSD_BS6_0 COST      75.45      SAVL_STR_01_0 1.0
    X_01_HSD_BS6_0 PDEM_HSD_BS6_0 1.0
    X_01_HSD_BS6_0 Q_HSD_BS6_OCTANE_0 0.3828     Q_HSD_BS6_SULFUR_0 0.2269    
    X_01_HSD_BS6_0 Q_HSD_BS6_CETANE_0 0.8453     Q_HSD_BS6_DENSITY_0 0.7920    
    X_01_HSD_BS6_0 Q_HSD_BS6_RVP_0 0.1700     Q_HSD_BS6_FLASH_0 0.9635    
    X_01_JET_A1_0  COST      75.45      SAVL_STR_01_0 1.0
    X_01_JET_A1_0  PDEM_JET_A1_0 1.0
    X_01_JET_A1_0  Q_JET_A1_OCTANE_0 0.3828     Q_JET_A1_SULFUR_0 0.2269    
    X_01_JET_A1_0  Q_JET_A1_CETANE_0 0.8453     Q_JET_A1_DENSITY_0 0.7920    
    X_01_JET_A1_0  Q_JET_A1_RVP_0 0.1700     Q_JET_A1_FLASH_0 0.9635    
    X_01_MGO_0     COST      75.45      SAVL_STR_01_0 1.0
    X_01_MGO_0     PDEM_MGO_0 1.0
    X_01_MGO_0     Q_MGO_OCTANE_0 0.3828     Q_MGO_SULFUR_0 0.2269    
    X_01_MGO_0     Q_MGO_CETANE_0 0.8453     Q_MGO_DENSITY_0 0.7920    
    X_01_MGO_0     Q_MGO_RVP_0 0.1700     Q_MGO_FLASH_0 0.9635    
    X_01_FO380_0   COST      75.45      SAVL_STR_01_0 1.0
    X_01_FO380_0   PDEM_FO380_0 1.0
    X_01_FO380_0   Q_FO380_OCTANE_0 0.3828     Q_FO380_SULFUR_0 0.2269    
    X_01_FO380_0   Q_FO380_CETANE_0 0.8453     Q_FO380_DENSITY_0 0.7920    
    X_01_FO380_0   Q_FO380_RVP_0 0.1700     Q_FO380_FLASH_0 0.9635    
    X_02_MS91_0    COST      81.43      SAVL_STR_02_0 1.0
    X_02_MS91_0    PDEM_MS91_0 1.0
    X_02_MS91_0    Q_MS91_OCTANE_0 0.3214     Q_MS91_SULFUR_0 0.0414    
    X_02_MS91_0    Q_MS91_CETANE_0 1.2012     Q_MS91_DENSITY_0 0.8425    
    X_02_MS91_0    Q_MS91_RVP_0 0.0338     Q_MS91_FLASH_0 1.1622    
    X_02_MS95_0    COST      81.43      SAVL_STR_02_0 1.0
    X_02_MS95_0    PDEM_MS95_0 1.0
    X_02_MS95_0    Q_MS95_OCTANE_0 0.3214     Q_MS95_SULFUR_0 0.0414    
    X_02_MS95_0    Q_MS95_CETANE_0 1.2012     Q_MS95_DENSITY_0 0.8425    
    X_02_MS95_0    Q_MS95_RVP_0 0.0338     Q_MS95_FLASH_0 1.1622    
    X_02_HSD_BS6_0 COST      81.43      SAVL_STR_02_0 1.0
    X_02_HSD_BS6_0 PDEM_HSD_BS6_0 1.0
    X_02_HSD_BS6_0 Q_HSD_BS6_OCTANE_0 0.3214     Q_HSD_BS6_SULFUR_0 0.0414    
    X_02_HSD_BS6_0 Q_HSD_BS6_CETANE_0 1.2012     Q_HSD_BS6_DENSITY_0 0.8425    
    X_02_HSD_BS6_0 Q_HSD_BS6_RVP_0 0.0338     Q_HSD_BS6_FLASH_0 1.1622    
    X_02_JET_A1_0  COST      81.43      SAVL_STR_02_0 1.0
    X_02_JET_A1_0  PDEM_JET_A1_0 1.0
    X_02_JET_A1_0  Q_JET_A1_OCTANE_0 0.3214     Q_JET_A1_SULFUR_0 0.0414    
    X_02_JET_A1_0  Q_JET_A1_CETANE_0 1.2012     Q_JET_A1_DENSITY_0 0.8425    
    X_02_JET_A1_0  Q_JET_A1_RVP_0 0.0338     Q_JET_A1_FLASH_0 1.1622    
    X_02_MGO_0     COST      81.43      SAVL_STR_02_0 1.0
    X_02_MGO_0     PDEM_MGO_0 1.0
    X_02_MGO_0     Q_MGO_OCTANE_0 0.3214     Q_MGO_SULFUR_0 0.0414    
    X_02_MGO_0     Q_MGO_CETANE_0 1.2012     Q_MGO_DENSITY_0 0.8425    
    X_02_MGO_0     Q_MGO_RVP_0 0.0338     Q_MGO_FLASH_0 1.1622    
    X_02_FO380_0   COST      81.43      SAVL_STR_02_0 1.0
    X_02_FO380_0   PDEM_FO380_0 1.0
    X_02_FO380_0   Q_FO380_OCTANE_0 0.3214     Q_FO380_SULFUR_0 0.0414    
    X_02_FO380_0   Q_FO380_CETANE_0 1.2012     Q_FO380_DENSITY_0 0.8425    
    X_02_FO380_0   Q_FO380_RVP_0 0.0338     Q_FO380_FLASH_0 1.1622    
    X_03_MS91_0    COST      50.72      SAVL_STR_03_0 1.0
    X_03_MS91_0    PDEM_MS91_0 1.0
    X_03_MS91_0    Q_MS91_OCTANE_0 0.0639     Q_MS91_SULFUR_0 6.9343    
    X_03_MS91_0    Q_MS91_CETANE_0 0.7542     Q_MS91_DENSITY_0 0.9702    
    X_03_MS91_0    Q_MS91_RVP_0 0.0165     Q_MS91_FLASH_0 2.1297    
    X_03_MS95_0    COST      50.72      SAVL_STR_03_0 1.0
    X_03_MS95_0    PDEM_MS95_0 1.0
    X_03_MS95_0    Q_MS95_OCTANE_0 0.0639     Q_MS95_SULFUR_0 6.9343    
    X_03_MS95_0    Q_MS95_CETANE_0 0.7542     Q_MS95_DENSITY_0 0.9702    
    X_03_MS95_0    Q_MS95_RVP_0 0.0165     Q_MS95_FLASH_0 2.1297    
    X_03_HSD_BS6_0 COST      50.72      SAVL_STR_03_0 1.0
    X_03_HSD_BS6_0 PDEM_HSD_BS6_0 1.0
    X_03_HSD_BS6_0 Q_HSD_BS6_OCTANE_0 0.0639     Q_HSD_BS6_SULFUR_0 6.9343    
    X_03_HSD_BS6_0 Q_HSD_BS6_CETANE_0 0.7542     Q_HSD_BS6_DENSITY_0 0.9702    
    X_03_HSD_BS6_0 Q_HSD_BS6_RVP_0 0.0165     Q_HSD_BS6_FLASH_0 2.1297    
    X_03_JET_A1_0  COST      50.72      SAVL_STR_03_0 1.0
    X_03_JET_A1_0  PDEM_JET_A1_0 1.0
    X_03_JET_A1_0  Q_JET_A1_OCTANE_0 0.0639     Q_JET_A1_SULFUR_0 6.9343    
    X_03_JET_A1_0  Q_JET_A1_CETANE_0 0.7542     Q_JET_A1_DENSITY_0 0.9702    
    X_03_JET_A1_0  Q_JET_A1_RVP_0 0.0165     Q_JET_A1_FLASH_0 2.1297    
    X_03_MGO_0     COST      50.72      SAVL_STR_03_0 1.0
    X_03_MGO_0     PDEM_MGO_0 1.0
    X_03_MGO_0     Q_MGO_OCTANE_0 0.0639     Q_MGO_SULFUR_0 6.9343    
    X_03_MGO_0     Q_MGO_CETANE_0 0.7542     Q_MGO_DENSITY_0 0.9702    
    X_03_MGO_0     Q_MGO_RVP_0 0.0165     Q_MGO_FLASH_0 2.1297    
    X_03_FO380_0   COST      50.72      SAVL_STR_03_0 1.0
    X_03_FO380_0   PDEM_FO380_0 1.0
    X_03_FO380_0   Q_FO380_OCTANE_0 0.0639     Q_FO380_SULFUR_0 6.9343    
    X_03_FO380_0   Q_FO380_CETANE_0 0.7542     Q_FO380_DENSITY_0 0.9702    
    X_03_FO380_0   Q_FO380_RVP_0 0.0165     Q_FO380_FLASH_0 2.1297    
    X_04_MS91_0    COST      84.60      SAVL_STR_04_0 1.0
    X_04_MS91_0    PDEM_MS91_0 1.0
    X_04_MS91_0    Q_MS91_OCTANE_0 0.9330     Q_MS91_SULFUR_0 0.0918    
    X_04_MS91_0    Q_MS91_CETANE_0 0.4659     Q_MS91_DENSITY_0 0.7478    
    X_04_MS91_0    Q_MS91_RVP_0 1.6170     Q_MS91_FLASH_0 -0.5536   
    X_04_MS95_0    COST      84.60      SAVL_STR_04_0 1.0
    X_04_MS95_0    PDEM_MS95_0 1.0
    X_04_MS95_0    Q_MS95_OCTANE_0 0.9330     Q_MS95_SULFUR_0 0.0918    
    X_04_MS95_0    Q_MS95_CETANE_0 0.4659     Q_MS95_DENSITY_0 0.7478    
    X_04_MS95_0    Q_MS95_RVP_0 1.6170     Q_MS95_FLASH_0 -0.5536   
    X_04_HSD_BS6_0 COST      84.60      SAVL_STR_04_0 1.0
    X_04_HSD_BS6_0 PDEM_HSD_BS6_0 1.0
    X_04_HSD_BS6_0 Q_HSD_BS6_OCTANE_0 0.9330     Q_HSD_BS6_SULFUR_0 0.0918    
    X_04_HSD_BS6_0 Q_HSD_BS6_CETANE_0 0.4659     Q_HSD_BS6_DENSITY_0 0.7478    
    X_04_HSD_BS6_0 Q_HSD_BS6_RVP_0 1.6170     Q_HSD_BS6_FLASH_0 -0.5536   
    X_04_JET_A1_0  COST      84.60      SAVL_STR_04_0 1.0
    X_04_JET_A1_0  PDEM_JET_A1_0 1.0
    X_04_JET_A1_0  Q_JET_A1_OCTANE_0 0.9330     Q_JET_A1_SULFUR_0 0.0918    
    X_04_JET_A1_0  Q_JET_A1_CETANE_0 0.4659     Q_JET_A1_DENSITY_0 0.7478    
    X_04_JET_A1_0  Q_JET_A1_RVP_0 1.6170     Q_JET_A1_FLASH_0 -0.5536   
    X_04_MGO_0     COST      84.60      SAVL_STR_04_0 1.0
    X_04_MGO_0     PDEM_MGO_0 1.0
    X_04_MGO_0     Q_MGO_OCTANE_0 0.9330     Q_MGO_SULFUR_0 0.0918    
    X_04_MGO_0     Q_MGO_CETANE_0 0.4659     Q_MGO_DENSITY_0 0.7478    
    X_04_MGO_0     Q_MGO_RVP_0 1.6170     Q_MGO_FLASH_0 -0.5536   
    X_04_FO380_0   COST      84.60      SAVL_STR_04_0 1.0
    X_04_FO380_0   PDEM_FO380_0 1.0
    X_04_FO380_0   Q_FO380_OCTANE_0 0.9330     Q_FO380_SULFUR_0 0.0918    
    X_04_FO380_0   Q_FO380_CETANE_0 0.4659     Q_FO380_DENSITY_0 0.7478    
    X_04_FO380_0   Q_FO380_RVP_0 1.6170     Q_FO380_FLASH_0 -0.5536   
    X_05_MS91_0    COST      75.69      SAVL_STR_05_0 1.0
    X_05_MS91_0    PDEM_MS91_0 1.0
    X_05_MS91_0    Q_MS91_OCTANE_0 0.3842     Q_MS91_SULFUR_0 0.1513    
    X_05_MS91_0    Q_MS91_CETANE_0 0.8560     Q_MS91_DENSITY_0 0.7931    
    X_05_MS91_0    Q_MS91_RVP_0 0.0602     Q_MS91_FLASH_0 0.8834    
    X_05_MS95_0    COST      75.69      SAVL_STR_05_0 1.0
    X_05_MS95_0    PDEM_MS95_0 1.0
    X_05_MS95_0    Q_MS95_OCTANE_0 0.3842     Q_MS95_SULFUR_0 0.1513    
    X_05_MS95_0    Q_MS95_CETANE_0 0.8560     Q_MS95_DENSITY_0 0.7931    
    X_05_MS95_0    Q_MS95_RVP_0 0.0602     Q_MS95_FLASH_0 0.8834    
    X_05_HSD_BS6_0 COST      75.69      SAVL_STR_05_0 1.0
    X_05_HSD_BS6_0 PDEM_HSD_BS6_0 1.0
    X_05_HSD_BS6_0 Q_HSD_BS6_OCTANE_0 0.3842     Q_HSD_BS6_SULFUR_0 0.1513    
    X_05_HSD_BS6_0 Q_HSD_BS6_CETANE_0 0.8560     Q_HSD_BS6_DENSITY_0 0.7931    
    X_05_HSD_BS6_0 Q_HSD_BS6_RVP_0 0.0602     Q_HSD_BS6_FLASH_0 0.8834    
    X_05_JET_A1_0  COST      75.69      SAVL_STR_05_0 1.0
    X_05_JET_A1_0  PDEM_JET_A1_0 1.0
    X_05_JET_A1_0  Q_JET_A1_OCTANE_0 0.3842     Q_JET_A1_SULFUR_0 0.1513    
    X_05_JET_A1_0  Q_JET_A1_CETANE_0 0.8560     Q_JET_A1_DENSITY_0 0.7931    
    X_05_JET_A1_0  Q_JET_A1_RVP_0 0.0602     Q_JET_A1_FLASH_0 0.8834    
    X_05_MGO_0     COST      75.69      SAVL_STR_05_0 1.0
    X_05_MGO_0     PDEM_MGO_0 1.0
    X_05_MGO_0     Q_MGO_OCTANE_0 0.3842     Q_MGO_SULFUR_0 0.1513    
    X_05_MGO_0     Q_MGO_CETANE_0 0.8560     Q_MGO_DENSITY_0 0.7931    
    X_05_MGO_0     Q_MGO_RVP_0 0.0602     Q_MGO_FLASH_0 0.8834    
    X_05_FO380_0   COST      75.69      SAVL_STR_05_0 1.0
    X_05_FO380_0   PDEM_FO380_0 1.0
    X_05_FO380_0   Q_FO380_OCTANE_0 0.3842     Q_FO380_SULFUR_0 0.1513    
    X_05_FO380_0   Q_FO380_CETANE_0 0.8560     Q_FO380_DENSITY_0 0.7931    
    X_05_FO380_0   Q_FO380_RVP_0 0.0602     Q_FO380_FLASH_0 0.8834    
    X_06_MS91_0    COST      77.84      SAVL_STR_06_0 1.0
    X_06_MS91_0    PDEM_MS91_0 1.0
    X_06_MS91_0    Q_MS91_OCTANE_0 0.2555     Q_MS91_SULFUR_0 0.0840    
    X_06_MS91_0    Q_MS91_CETANE_0 1.0934     Q_MS91_DENSITY_0 0.8484    
    X_06_MS91_0    Q_MS91_RVP_0 0.0554     Q_MS91_FLASH_0 1.3437    
    X_06_MS95_0    COST      77.84      SAVL_STR_06_0 1.0
    X_06_MS95_0    PDEM_MS95_0 1.0
    X_06_MS95_0    Q_MS95_OCTANE_0 0.2555     Q_MS95_SULFUR_0 0.0840    
    X_06_MS95_0    Q_MS95_CETANE_0 1.0934     Q_MS95_DENSITY_0 0.8484    
    X_06_MS95_0    Q_MS95_RVP_0 0.0554     Q_MS95_FLASH_0 1.3437    
    X_06_HSD_BS6_0 COST      77.84      SAVL_STR_06_0 1.0
    X_06_HSD_BS6_0 PDEM_HSD_BS6_0 1.0
    X_06_HSD_BS6_0 Q_HSD_BS6_OCTANE_0 0.2555     Q_HSD_BS6_SULFUR_0 0.0840    
    X_06_HSD_BS6_0 Q_HSD_BS6_CETANE_0 1.0934     Q_HSD_BS6_DENSITY_0 0.8484    
    X_06_HSD_BS6_0 Q_HSD_BS6_RVP_0 0.0554     Q_HSD_BS6_FLASH_0 1.3437    
    X_06_JET_A1_0  COST      77.84      SAVL_STR_06_0 1.0
    X_06_JET_A1_0  PDEM_JET_A1_0 1.0
    X_06_JET_A1_0  Q_JET_A1_OCTANE_0 0.2555     Q_JET_A1_SULFUR_0 0.0840    
    X_06_JET_A1_0  Q_JET_A1_CETANE_0 1.0934     Q_JET_A1_DENSITY_0 0.8484    
    X_06_JET_A1_0  Q_JET_A1_RVP_0 0.0554     Q_JET_A1_FLASH_0 1.3437    
    X_06_MGO_0     COST      77.84      SAVL_STR_06_0 1.0
    X_06_MGO_0     PDEM_MGO_0 1.0
    X_06_MGO_0     Q_MGO_OCTANE_0 0.2555     Q_MGO_SULFUR_0 0.0840    
    X_06_MGO_0     Q_MGO_CETANE_0 1.0934     Q_MGO_DENSITY_0 0.8484    
    X_06_MGO_0     Q_MGO_RVP_0 0.0554     Q_MGO_FLASH_0 1.3437    
    X_06_FO380_0   COST      77.84      SAVL_STR_06_0 1.0
    X_06_FO380_0   PDEM_FO380_0 1.0
    X_06_FO380_0   Q_FO380_OCTANE_0 0.2555     Q_FO380_SULFUR_0 0.0840    
    X_06_FO380_0   Q_FO380_CETANE_0 1.0934     Q_FO380_DENSITY_0 0.8484    
    X_06_FO380_0   Q_FO380_RVP_0 0.0554     Q_FO380_FLASH_0 1.3437    
    X_07_MS91_0    COST      57.40      SAVL_STR_07_0 1.0
    X_07_MS91_0    PDEM_MS91_0 1.0
    X_07_MS91_0    Q_MS91_OCTANE_0 0.0745     Q_MS91_SULFUR_0 12.5891   
    X_07_MS91_0    Q_MS91_CETANE_0 0.7969     Q_MS91_DENSITY_0 0.9720    
    X_07_MS91_0    Q_MS91_RVP_0 0.0120     Q_MS91_FLASH_0 2.0846    
    X_07_MS95_0    COST      57.40      SAVL_STR_07_0 1.0
    X_07_MS95_0    PDEM_MS95_0 1.0
    X_07_MS95_0    Q_MS95_OCTANE_0 0.0745     Q_MS95_SULFUR_0 12.5891   
    X_07_MS95_0    Q_MS95_CETANE_0 0.7969     Q_MS95_DENSITY_0 0.9720    
    X_07_MS95_0    Q_MS95_RVP_0 0.0120     Q_MS95_FLASH_0 2.0846    
    X_07_HSD_BS6_0 COST      57.40      SAVL_STR_07_0 1.0
    X_07_HSD_BS6_0 PDEM_HSD_BS6_0 1.0
    X_07_HSD_BS6_0 Q_HSD_BS6_OCTANE_0 0.0745     Q_HSD_BS6_SULFUR_0 12.5891   
    X_07_HSD_BS6_0 Q_HSD_BS6_CETANE_0 0.7969     Q_HSD_BS6_DENSITY_0 0.9720    
    X_07_HSD_BS6_0 Q_HSD_BS6_RVP_0 0.0120     Q_HSD_BS6_FLASH_0 2.0846    
    X_07_JET_A1_0  COST      57.40      SAVL_STR_07_0 1.0
    X_07_JET_A1_0  PDEM_JET_A1_0 1.0
    X_07_JET_A1_0  Q_JET_A1_OCTANE_0 0.0745     Q_JET_A1_SULFUR_0 12.5891   
    X_07_JET_A1_0  Q_JET_A1_CETANE_0 0.7969     Q_JET_A1_DENSITY_0 0.9720    
    X_07_JET_A1_0  Q_JET_A1_RVP_0 0.0120     Q_JET_A1_FLASH_0 2.0846    
    X_07_MGO_0     COST      57.40      SAVL_STR_07_0 1.0
    X_07_MGO_0     PDEM_MGO_0 1.0
    X_07_MGO_0     Q_MGO_OCTANE_0 0.0745     Q_MGO_SULFUR_0 12.5891   
    X_07_MGO_0     Q_MGO_CETANE_0 0.7969     Q_MGO_DENSITY_0 0.9720    
    X_07_MGO_0     Q_MGO_RVP_0 0.0120     Q_MGO_FLASH_0 2.0846    
    X_07_FO380_0   COST      57.40      SAVL_STR_07_0 1.0
    X_07_FO380_0   PDEM_FO380_0 1.0
    X_07_FO380_0   Q_FO380_OCTANE_0 0.0745     Q_FO380_SULFUR_0 12.5891   
    X_07_FO380_0   Q_FO380_CETANE_0 0.7969     Q_FO380_DENSITY_0 0.9720    
    X_07_FO380_0   Q_FO380_RVP_0 0.0120     Q_FO380_FLASH_0 2.0846    
    X_08_MS91_0    COST      81.64      SAVL_STR_08_0 1.0
    X_08_MS91_0    PDEM_MS91_0 1.0
    X_08_MS91_0    Q_MS91_OCTANE_0 0.9121     Q_MS91_SULFUR_0 0.0242    
    X_08_MS91_0    Q_MS91_CETANE_0 0.3631     Q_MS91_DENSITY_0 0.7320    
    X_08_MS91_0    Q_MS91_RVP_0 1.2266     Q_MS91_FLASH_0 -0.3343   
    X_08_MS95_0    COST      81.64      SAVL_STR_08_0 1.0
    X_08_MS95_0    PDEM_MS95_0 1.0
    X_08_MS95_0    Q_MS95_OCTANE_0 0.9121     Q_MS95_SULFUR_0 0.0242    
    X_08_MS95_0    Q_MS95_CETANE_0 0.3631     Q_MS95_DENSITY_0 0.7320    
    X_08_MS95_0    Q_MS95_RVP_0 1.2266     Q_MS95_FLASH_0 -0.3343   
    X_08_HSD_BS6_0 COST      81.64      SAVL_STR_08_0 1.0
    X_08_HSD_BS6_0 PDEM_HSD_BS6_0 1.0
    X_08_HSD_BS6_0 Q_HSD_BS6_OCTANE_0 0.9121     Q_HSD_BS6_SULFUR_0 0.0242    
    X_08_HSD_BS6_0 Q_HSD_BS6_CETANE_0 0.3631     Q_HSD_BS6_DENSITY_0 0.7320    
    X_08_HSD_BS6_0 Q_HSD_BS6_RVP_0 1.2266     Q_HSD_BS6_FLASH_0 -0.3343   
    X_08_JET_A1_0  COST      81.64      SAVL_STR_08_0 1.0
    X_08_JET_A1_0  PDEM_JET_A1_0 1.0
    X_08_JET_A1_0  Q_JET_A1_OCTANE_0 0.9121     Q_JET_A1_SULFUR_0 0.0242    
    X_08_JET_A1_0  Q_JET_A1_CETANE_0 0.3631     Q_JET_A1_DENSITY_0 0.7320    
    X_08_JET_A1_0  Q_JET_A1_RVP_0 1.2266     Q_JET_A1_FLASH_0 -0.3343   
    X_08_MGO_0     COST      81.64      SAVL_STR_08_0 1.0
    X_08_MGO_0     PDEM_MGO_0 1.0
    X_08_MGO_0     Q_MGO_OCTANE_0 0.9121     Q_MGO_SULFUR_0 0.0242    
    X_08_MGO_0     Q_MGO_CETANE_0 0.3631     Q_MGO_DENSITY_0 0.7320    
    X_08_MGO_0     Q_MGO_RVP_0 1.2266     Q_MGO_FLASH_0 -0.3343   
    X_08_FO380_0   COST      81.64      SAVL_STR_08_0 1.0
    X_08_FO380_0   PDEM_FO380_0 1.0
    X_08_FO380_0   Q_FO380_OCTANE_0 0.9121     Q_FO380_SULFUR_0 0.0242    
    X_08_FO380_0   Q_FO380_CETANE_0 0.3631     Q_FO380_DENSITY_0 0.7320    
    X_08_FO380_0   Q_FO380_RVP_0 1.2266     Q_FO380_FLASH_0 -0.3343   
    X_09_MS91_0    COST      79.72      SAVL_STR_09_0 1.0
    X_09_MS91_0    PDEM_MS91_0 1.0
    X_09_MS91_0    Q_MS91_OCTANE_0 0.4483     Q_MS91_SULFUR_0 0.1885    
    X_09_MS91_0    Q_MS91_CETANE_0 1.0229     Q_MS91_DENSITY_0 0.8011    
    X_09_MS91_0    Q_MS91_RVP_0 0.0930     Q_MS91_FLASH_0 0.8740    
    X_09_MS95_0    COST      79.72      SAVL_STR_09_0 1.0
    X_09_MS95_0    PDEM_MS95_0 1.0
    X_09_MS95_0    Q_MS95_OCTANE_0 0.4483     Q_MS95_SULFUR_0 0.1885    
    X_09_MS95_0    Q_MS95_CETANE_0 1.0229     Q_MS95_DENSITY_0 0.8011    
    X_09_MS95_0    Q_MS95_RVP_0 0.0930     Q_MS95_FLASH_0 0.8740    
    X_09_HSD_BS6_0 COST      79.72      SAVL_STR_09_0 1.0
    X_09_HSD_BS6_0 PDEM_HSD_BS6_0 1.0
    X_09_HSD_BS6_0 Q_HSD_BS6_OCTANE_0 0.4483     Q_HSD_BS6_SULFUR_0 0.1885    
    X_09_HSD_BS6_0 Q_HSD_BS6_CETANE_0 1.0229     Q_HSD_BS6_DENSITY_0 0.8011    
    X_09_HSD_BS6_0 Q_HSD_BS6_RVP_0 0.0930     Q_HSD_BS6_FLASH_0 0.8740    
    X_09_JET_A1_0  COST      79.72      SAVL_STR_09_0 1.0
    X_09_JET_A1_0  PDEM_JET_A1_0 1.0
    X_09_JET_A1_0  Q_JET_A1_OCTANE_0 0.4483     Q_JET_A1_SULFUR_0 0.1885    
    X_09_JET_A1_0  Q_JET_A1_CETANE_0 1.0229     Q_JET_A1_DENSITY_0 0.8011    
    X_09_JET_A1_0  Q_JET_A1_RVP_0 0.0930     Q_JET_A1_FLASH_0 0.8740    
    X_09_MGO_0     COST      79.72      SAVL_STR_09_0 1.0
    X_09_MGO_0     PDEM_MGO_0 1.0
    X_09_MGO_0     Q_MGO_OCTANE_0 0.4483     Q_MGO_SULFUR_0 0.1885    
    X_09_MGO_0     Q_MGO_CETANE_0 1.0229     Q_MGO_DENSITY_0 0.8011    
    X_09_MGO_0     Q_MGO_RVP_0 0.0930     Q_MGO_FLASH_0 0.8740    
    X_09_FO380_0   COST      79.72      SAVL_STR_09_0 1.0
    X_09_FO380_0   PDEM_FO380_0 1.0
    X_09_FO380_0   Q_FO380_OCTANE_0 0.4483     Q_FO380_SULFUR_0 0.1885    
    X_09_FO380_0   Q_FO380_CETANE_0 1.0229     Q_FO380_DENSITY_0 0.8011    
    X_09_FO380_0   Q_FO380_RVP_0 0.0930     Q_FO380_FLASH_0 0.8740    
    X_10_MS91_0    COST      76.20      SAVL_STR_10_0 1.0
    X_10_MS91_0    PDEM_MS91_0 1.0
    X_10_MS91_0    Q_MS91_OCTANE_0 0.2877     Q_MS91_SULFUR_0 0.2285    
    X_10_MS91_0    Q_MS91_CETANE_0 1.1199     Q_MS91_DENSITY_0 0.8305    
    X_10_MS91_0    Q_MS91_RVP_0 0.0798     Q_MS91_FLASH_0 1.3038    
    X_10_MS95_0    COST      76.20      SAVL_STR_10_0 1.0
    X_10_MS95_0    PDEM_MS95_0 1.0
    X_10_MS95_0    Q_MS95_OCTANE_0 0.2877     Q_MS95_SULFUR_0 0.2285    
    X_10_MS95_0    Q_MS95_CETANE_0 1.1199     Q_MS95_DENSITY_0 0.8305    
    X_10_MS95_0    Q_MS95_RVP_0 0.0798     Q_MS95_FLASH_0 1.3038    
    X_10_HSD_BS6_0 COST      76.20      SAVL_STR_10_0 1.0
    X_10_HSD_BS6_0 PDEM_HSD_BS6_0 1.0
    X_10_HSD_BS6_0 Q_HSD_BS6_OCTANE_0 0.2877     Q_HSD_BS6_SULFUR_0 0.2285    
    X_10_HSD_BS6_0 Q_HSD_BS6_CETANE_0 1.1199     Q_HSD_BS6_DENSITY_0 0.8305    
    X_10_HSD_BS6_0 Q_HSD_BS6_RVP_0 0.0798     Q_HSD_BS6_FLASH_0 1.3038    
    X_10_JET_A1_0  COST      76.20      SAVL_STR_10_0 1.0
    X_10_JET_A1_0  PDEM_JET_A1_0 1.0
    X_10_JET_A1_0  Q_JET_A1_OCTANE_0 0.2877     Q_JET_A1_SULFUR_0 0.2285    
    X_10_JET_A1_0  Q_JET_A1_CETANE_0 1.1199     Q_JET_A1_DENSITY_0 0.8305    
    X_10_JET_A1_0  Q_JET_A1_RVP_0 0.0798     Q_JET_A1_FLASH_0 1.3038    
    X_10_MGO_0     COST      76.20      SAVL_STR_10_0 1.0
    X_10_MGO_0     PDEM_MGO_0 1.0
    X_10_MGO_0     Q_MGO_OCTANE_0 0.2877     Q_MGO_SULFUR_0 0.2285    
    X_10_MGO_0     Q_MGO_CETANE_0 1.1199     Q_MGO_DENSITY_0 0.8305    
    X_10_MGO_0     Q_MGO_RVP_0 0.0798     Q_MGO_FLASH_0 1.3038    
    X_10_FO380_0   COST      76.20      SAVL_STR_10_0 1.0
    X_10_FO380_0   PDEM_FO380_0 1.0
    X_10_FO380_0   Q_FO380_OCTANE_0 0.2877     Q_FO380_SULFUR_0 0.2285    
    X_10_FO380_0   Q_FO380_CETANE_0 1.1199     Q_FO380_DENSITY_0 0.8305    
    X_10_FO380_0   Q_FO380_RVP_0 0.0798     Q_FO380_FLASH_0 1.3038    
    X_11_MS91_0    COST      45.80      SAVL_STR_11_0 1.0
    X_11_MS91_0    PDEM_MS91_0 1.0
    X_11_MS91_0    Q_MS91_OCTANE_0 0.0664     Q_MS91_SULFUR_0 17.5489   
    X_11_MS91_0    Q_MS91_CETANE_0 0.7376     Q_MS91_DENSITY_0 0.9611    
    X_11_MS91_0    Q_MS91_RVP_0 0.0031     Q_MS91_FLASH_0 1.7816    
    X_11_MS95_0    COST      45.80      SAVL_STR_11_0 1.0
    X_11_MS95_0    PDEM_MS95_0 1.0
    X_11_MS95_0    Q_MS95_OCTANE_0 0.0664     Q_MS95_SULFUR_0 17.5489   
    X_11_MS95_0    Q_MS95_CETANE_0 0.7376     Q_MS95_DENSITY_0 0.9611    
    X_11_MS95_0    Q_MS95_RVP_0 0.0031     Q_MS95_FLASH_0 1.7816    
    X_11_HSD_BS6_0 COST      45.80      SAVL_STR_11_0 1.0
    X_11_HSD_BS6_0 PDEM_HSD_BS6_0 1.0
    X_11_HSD_BS6_0 Q_HSD_BS6_OCTANE_0 0.0664     Q_HSD_BS6_SULFUR_0 17.5489   
    X_11_HSD_BS6_0 Q_HSD_BS6_CETANE_0 0.7376     Q_HSD_BS6_DENSITY_0 0.9611    
    X_11_HSD_BS6_0 Q_HSD_BS6_RVP_0 0.0031     Q_HSD_BS6_FLASH_0 1.7816    
    X_11_JET_A1_0  COST      45.80      SAVL_STR_11_0 1.0
    X_11_JET_A1_0  PDEM_JET_A1_0 1.0
    X_11_JET_A1_0  Q_JET_A1_OCTANE_0 0.0664     Q_JET_A1_SULFUR_0 17.5489   
    X_11_JET_A1_0  Q_JET_A1_CETANE_0 0.7376     Q_JET_A1_DENSITY_0 0.9611    
    X_11_JET_A1_0  Q_JET_A1_RVP_0 0.0031     Q_JET_A1_FLASH_0 1.7816    
    X_11_MGO_0     COST      45.80      SAVL_STR_11_0 1.0
    X_11_MGO_0     PDEM_MGO_0 1.0
    X_11_MGO_0     Q_MGO_OCTANE_0 0.0664     Q_MGO_SULFUR_0 17.5489   
    X_11_MGO_0     Q_MGO_CETANE_0 0.7376     Q_MGO_DENSITY_0 0.9611    
    X_11_MGO_0     Q_MGO_RVP_0 0.0031     Q_MGO_FLASH_0 1.7816    
    X_11_FO380_0   COST      45.80      SAVL_STR_11_0 1.0
    X_11_FO380_0   PDEM_FO380_0 1.0
    X_11_FO380_0   Q_FO380_OCTANE_0 0.0664     Q_FO380_SULFUR_0 17.5489   
    X_11_FO380_0   Q_FO380_CETANE_0 0.7376     Q_FO380_DENSITY_0 0.9611    
    X_11_FO380_0   Q_FO380_RVP_0 0.0031     Q_FO380_FLASH_0 1.7816    
    X_12_MS91_0    COST      77.94      SAVL_STR_12_0 1.0
    X_12_MS91_0    PDEM_MS91_0 1.0
    X_12_MS91_0    Q_MS91_OCTANE_0 1.0160     Q_MS91_SULFUR_0 0.1319    
    X_12_MS91_0    Q_MS91_CETANE_0 0.3023     Q_MS91_DENSITY_0 0.7524    
    X_12_MS91_0    Q_MS91_RVP_0 1.5090     Q_MS91_FLASH_0 -0.5778   
    X_12_MS95_0    COST      77.94      SAVL_STR_12_0 1.0
    X_12_MS95_0    PDEM_MS95_0 1.0
    X_12_MS95_0    Q_MS95_OCTANE_0 1.0160     Q_MS95_SULFUR_0 0.1319    
    X_12_MS95_0    Q_MS95_CETANE_0 0.3023     Q_MS95_DENSITY_0 0.7524    
    X_12_MS95_0    Q_MS95_RVP_0 1.5090     Q_MS95_FLASH_0 -0.5778   
    X_12_HSD_BS6_0 COST      77.94      SAVL_STR_12_0 1.0
    X_12_HSD_BS6_0 PDEM_HSD_BS6_0 1.0
    X_12_HSD_BS6_0 Q_HSD_BS6_OCTANE_0 1.0160     Q_HSD_BS6_SULFUR_0 0.1319    
    X_12_HSD_BS6_0 Q_HSD_BS6_CETANE_0 0.3023     Q_HSD_BS6_DENSITY_0 0.7524    
    X_12_HSD_BS6_0 Q_HSD_BS6_RVP_0 1.5090     Q_HSD_BS6_FLASH_0 -0.5778   
    X_12_JET_A1_0  COST      77.94      SAVL_STR_12_0 1.0
    X_12_JET_A1_0  PDEM_JET_A1_0 1.0
    X_12_JET_A1_0  Q_JET_A1_OCTANE_0 1.0160     Q_JET_A1_SULFUR_0 0.1319    
    X_12_JET_A1_0  Q_JET_A1_CETANE_0 0.3023     Q_JET_A1_DENSITY_0 0.7524    
    X_12_JET_A1_0  Q_JET_A1_RVP_0 1.5090     Q_JET_A1_FLASH_0 -0.5778   
    X_12_MGO_0     COST      77.94      SAVL_STR_12_0 1.0
    X_12_MGO_0     PDEM_MGO_0 1.0
    X_12_MGO_0     Q_MGO_OCTANE_0 1.0160     Q_MGO_SULFUR_0 0.1319    
    X_12_MGO_0     Q_MGO_CETANE_0 0.3023     Q_MGO_DENSITY_0 0.7524    
    X_12_MGO_0     Q_MGO_RVP_0 1.5090     Q_MGO_FLASH_0 -0.5778   
    X_12_FO380_0   COST      77.94      SAVL_STR_12_0 1.0
    X_12_FO380_0   PDEM_FO380_0 1.0
    X_12_FO380_0   Q_FO380_OCTANE_0 1.0160     Q_FO380_SULFUR_0 0.1319    
    X_12_FO380_0   Q_FO380_CETANE_0 0.3023     Q_FO380_DENSITY_0 0.7524    
    X_12_FO380_0   Q_FO380_RVP_0 1.5090     Q_FO380_FLASH_0 -0.5778   
    X_13_MS91_0    COST      84.61      SAVL_STR_13_0 1.0
    X_13_MS91_0    PDEM_MS91_0 1.0
    X_13_MS91_0    Q_MS91_OCTANE_0 0.3667     Q_MS91_SULFUR_0 0.2022    
    X_13_MS91_0    Q_MS91_CETANE_0 0.9307     Q_MS91_DENSITY_0 0.8184    
    X_13_MS91_0    Q_MS91_RVP_0 0.2152     Q_MS91_FLASH_0 0.8790    
    X_13_MS95_0    COST      84.61      SAVL_STR_13_0 1.0
    X_13_MS95_0    PDEM_MS95_0 1.0
    X_13_MS95_0    Q_MS95_OCTANE_0 0.3667     Q_MS95_SULFUR_0 0.2022    
    X_13_MS95_0    Q_MS95_CETANE_0 0.9307     Q_MS95_DENSITY_0 0.8184    
    X_13_MS95_0    Q_MS95_RVP_0 0.2152     Q_MS95_FLASH_0 0.8790    
    X_13_HSD_BS6_0 COST      84.61      SAVL_STR_13_0 1.0
    X_13_HSD_BS6_0 PDEM_HSD_BS6_0 1.0
    X_13_HSD_BS6_0 Q_HSD_BS6_OCTANE_0 0.3667     Q_HSD_BS6_SULFUR_0 0.2022    
    X_13_HSD_BS6_0 Q_HSD_BS6_CETANE_0 0.9307     Q_HSD_BS6_DENSITY_0 0.8184    
    X_13_HSD_BS6_0 Q_HSD_BS6_RVP_0 0.2152     Q_HSD_BS6_FLASH_0 0.8790    
    X_13_JET_A1_0  COST      84.61      SAVL_STR_13_0 1.0
    X_13_JET_A1_0  PDEM_JET_A1_0 1.0
    X_13_JET_A1_0  Q_JET_A1_OCTANE_0 0.3667     Q_JET_A1_SULFUR_0 0.2022    
    X_13_JET_A1_0  Q_JET_A1_CETANE_0 0.9307     Q_JET_A1_DENSITY_0 0.8184    
    X_13_JET_A1_0  Q_JET_A1_RVP_0 0.2152     Q_JET_A1_FLASH_0 0.8790    
    X_13_MGO_0     COST      84.61      SAVL_STR_13_0 1.0
    X_13_MGO_0     PDEM_MGO_0 1.0
    X_13_MGO_0     Q_MGO_OCTANE_0 0.3667     Q_MGO_SULFUR_0 0.2022    
    X_13_MGO_0     Q_MGO_CETANE_0 0.9307     Q_MGO_DENSITY_0 0.8184    
    X_13_MGO_0     Q_MGO_RVP_0 0.2152     Q_MGO_FLASH_0 0.8790    
    X_13_FO380_0   COST      84.61      SAVL_STR_13_0 1.0
    X_13_FO380_0   PDEM_FO380_0 1.0
    X_13_FO380_0   Q_FO380_OCTANE_0 0.3667     Q_FO380_SULFUR_0 0.2022    
    X_13_FO380_0   Q_FO380_CETANE_0 0.9307     Q_FO380_DENSITY_0 0.8184    
    X_13_FO380_0   Q_FO380_RVP_0 0.2152     Q_FO380_FLASH_0 0.8790    
    X_14_MS91_0    COST      74.86      SAVL_STR_14_0 1.0
    X_14_MS91_0    PDEM_MS91_0 1.0
    X_14_MS91_0    Q_MS91_OCTANE_0 0.3369     Q_MS91_SULFUR_0 0.2228    
    X_14_MS91_0    Q_MS91_CETANE_0 1.0997     Q_MS91_DENSITY_0 0.8410    
    X_14_MS91_0    Q_MS91_RVP_0 0.0526     Q_MS91_FLASH_0 1.1611    
    X_14_MS95_0    COST      74.86      SAVL_STR_14_0 1.0
    X_14_MS95_0    PDEM_MS95_0 1.0
    X_14_MS95_0    Q_MS95_OCTANE_0 0.3369     Q_MS95_SULFUR_0 0.2228    
    X_14_MS95_0    Q_MS95_CETANE_0 1.0997     Q_MS95_DENSITY_0 0.8410    
    X_14_MS95_0    Q_MS95_RVP_0 0.0526     Q_MS95_FLASH_0 1.1611    
    X_14_HSD_BS6_0 COST      74.86      SAVL_STR_14_0 1.0
    X_14_HSD_BS6_0 PDEM_HSD_BS6_0 1.0
    X_14_HSD_BS6_0 Q_HSD_BS6_OCTANE_0 0.3369     Q_HSD_BS6_SULFUR_0 0.2228    
    X_14_HSD_BS6_0 Q_HSD_BS6_CETANE_0 1.0997     Q_HSD_BS6_DENSITY_0 0.8410    
    X_14_HSD_BS6_0 Q_HSD_BS6_RVP_0 0.0526     Q_HSD_BS6_FLASH_0 1.1611    
    X_14_JET_A1_0  COST      74.86      SAVL_STR_14_0 1.0
    X_14_JET_A1_0  PDEM_JET_A1_0 1.0
    X_14_JET_A1_0  Q_JET_A1_OCTANE_0 0.3369     Q_JET_A1_SULFUR_0 0.2228    
    X_14_JET_A1_0  Q_JET_A1_CETANE_0 1.0997     Q_JET_A1_DENSITY_0 0.8410    
    X_14_JET_A1_0  Q_JET_A1_RVP_0 0.0526     Q_JET_A1_FLASH_0 1.1611    
    X_14_MGO_0     COST      74.86      SAVL_STR_14_0 1.0
    X_14_MGO_0     PDEM_MGO_0 1.0
    X_14_MGO_0     Q_MGO_OCTANE_0 0.3369     Q_MGO_SULFUR_0 0.2228    
    X_14_MGO_0     Q_MGO_CETANE_0 1.0997     Q_MGO_DENSITY_0 0.8410    
    X_14_MGO_0     Q_MGO_RVP_0 0.0526     Q_MGO_FLASH_0 1.1611    
    X_14_FO380_0   COST      74.86      SAVL_STR_14_0 1.0
    X_14_FO380_0   PDEM_FO380_0 1.0
    X_14_FO380_0   Q_FO380_OCTANE_0 0.3369     Q_FO380_SULFUR_0 0.2228    
    X_14_FO380_0   Q_FO380_CETANE_0 1.0997     Q_FO380_DENSITY_0 0.8410    
    X_14_FO380_0   Q_FO380_RVP_0 0.0526     Q_FO380_FLASH_0 1.1611    
    X_15_MS91_0    COST      54.17      SAVL_STR_15_0 1.0
    X_15_MS91_0    PDEM_MS91_0 1.0
    X_15_MS91_0    Q_MS91_OCTANE_0 0.1668     Q_MS91_SULFUR_0 15.6071   
    X_15_MS91_0    Q_MS91_CETANE_0 0.5002     Q_MS91_DENSITY_0 0.9562    
    X_15_MS91_0    Q_MS91_RVP_0 0.0024     Q_MS91_FLASH_0 2.3291    
    X_15_MS95_0    COST      54.17      SAVL_STR_15_0 1.0
    X_15_MS95_0    PDEM_MS95_0 1.0
    X_15_MS95_0    Q_MS95_OCTANE_0 0.1668     Q_MS95_SULFUR_0 15.6071   
    X_15_MS95_0    Q_MS95_CETANE_0 0.5002     Q_MS95_DENSITY_0 0.9562    
    X_15_MS95_0    Q_MS95_RVP_0 0.0024     Q_MS95_FLASH_0 2.3291    
    X_15_HSD_BS6_0 COST      54.17      SAVL_STR_15_0 1.0
    X_15_HSD_BS6_0 PDEM_HSD_BS6_0 1.0
    X_15_HSD_BS6_0 Q_HSD_BS6_OCTANE_0 0.1668     Q_HSD_BS6_SULFUR_0 15.6071   
    X_15_HSD_BS6_0 Q_HSD_BS6_CETANE_0 0.5002     Q_HSD_BS6_DENSITY_0 0.9562    
    X_15_HSD_BS6_0 Q_HSD_BS6_RVP_0 0.0024     Q_HSD_BS6_FLASH_0 2.3291    
    X_15_JET_A1_0  COST      54.17      SAVL_STR_15_0 1.0
    X_15_JET_A1_0  PDEM_JET_A1_0 1.0
    X_15_JET_A1_0  Q_JET_A1_OCTANE_0 0.1668     Q_JET_A1_SULFUR_0 15.6071   
    X_15_JET_A1_0  Q_JET_A1_CETANE_0 0.5002     Q_JET_A1_DENSITY_0 0.9562    
    X_15_JET_A1_0  Q_JET_A1_RVP_0 0.0024     Q_JET_A1_FLASH_0 2.3291    
    X_15_MGO_0     COST      54.17      SAVL_STR_15_0 1.0
    X_15_MGO_0     PDEM_MGO_0 1.0
    X_15_MGO_0     Q_MGO_OCTANE_0 0.1668     Q_MGO_SULFUR_0 15.6071   
    X_15_MGO_0     Q_MGO_CETANE_0 0.5002     Q_MGO_DENSITY_0 0.9562    
    X_15_MGO_0     Q_MGO_RVP_0 0.0024     Q_MGO_FLASH_0 2.3291    
    X_15_FO380_0   COST      54.17      SAVL_STR_15_0 1.0
    X_15_FO380_0   PDEM_FO380_0 1.0
    X_15_FO380_0   Q_FO380_OCTANE_0 0.1668     Q_FO380_SULFUR_0 15.6071   
    X_15_FO380_0   Q_FO380_CETANE_0 0.5002     Q_FO380_DENSITY_0 0.9562    
    X_15_FO380_0   Q_FO380_RVP_0 0.0024     Q_FO380_FLASH_0 2.3291    
    X_16_MS91_0    COST      82.47      SAVL_STR_16_0 1.0
    X_16_MS91_0    PDEM_MS91_0 1.0
    X_16_MS91_0    Q_MS91_OCTANE_0 0.9231     Q_MS91_SULFUR_0 0.0275    
    X_16_MS91_0    Q_MS91_CETANE_0 0.4756     Q_MS91_DENSITY_0 0.7626    
    X_16_MS91_0    Q_MS91_RVP_0 1.1514     Q_MS91_FLASH_0 -0.6084   
    X_16_MS95_0    COST      82.47      SAVL_STR_16_0 1.0
    X_16_MS95_0    PDEM_MS95_0 1.0
    X_16_MS95_0    Q_MS95_OCTANE_0 0.9231     Q_MS95_SULFUR_0 0.0275    
    X_16_MS95_0    Q_MS95_CETANE_0 0.4756     Q_MS95_DENSITY_0 0.7626    
    X_16_MS95_0    Q_MS95_RVP_0 1.1514     Q_MS95_FLASH_0 -0.6084   
    X_16_HSD_BS6_0 COST      82.47      SAVL_STR_16_0 1.0
    X_16_HSD_BS6_0 PDEM_HSD_BS6_0 1.0
    X_16_HSD_BS6_0 Q_HSD_BS6_OCTANE_0 0.9231     Q_HSD_BS6_SULFUR_0 0.0275    
    X_16_HSD_BS6_0 Q_HSD_BS6_CETANE_0 0.4756     Q_HSD_BS6_DENSITY_0 0.7626    
    X_16_HSD_BS6_0 Q_HSD_BS6_RVP_0 1.1514     Q_HSD_BS6_FLASH_0 -0.6084   
    X_16_JET_A1_0  COST      82.47      SAVL_STR_16_0 1.0
    X_16_JET_A1_0  PDEM_JET_A1_0 1.0
    X_16_JET_A1_0  Q_JET_A1_OCTANE_0 0.9231     Q_JET_A1_SULFUR_0 0.0275    
    X_16_JET_A1_0  Q_JET_A1_CETANE_0 0.4756     Q_JET_A1_DENSITY_0 0.7626    
    X_16_JET_A1_0  Q_JET_A1_RVP_0 1.1514     Q_JET_A1_FLASH_0 -0.6084   
    X_16_MGO_0     COST      82.47      SAVL_STR_16_0 1.0
    X_16_MGO_0     PDEM_MGO_0 1.0
    X_16_MGO_0     Q_MGO_OCTANE_0 0.9231     Q_MGO_SULFUR_0 0.0275    
    X_16_MGO_0     Q_MGO_CETANE_0 0.4756     Q_MGO_DENSITY_0 0.7626    
    X_16_MGO_0     Q_MGO_RVP_0 1.1514     Q_MGO_FLASH_0 -0.6084   
    X_16_FO380_0   COST      82.47      SAVL_STR_16_0 1.0
    X_16_FO380_0   PDEM_FO380_0 1.0
    X_16_FO380_0   Q_FO380_OCTANE_0 0.9231     Q_FO380_SULFUR_0 0.0275    
    X_16_FO380_0   Q_FO380_CETANE_0 0.4756     Q_FO380_DENSITY_0 0.7626    
    X_16_FO380_0   Q_FO380_RVP_0 1.1514     Q_FO380_FLASH_0 -0.6084   
    X_17_MS91_0    COST      86.41      SAVL_STR_17_0 1.0
    X_17_MS91_0    PDEM_MS91_0 1.0
    X_17_MS91_0    Q_MS91_OCTANE_0 0.4649     Q_MS91_SULFUR_0 0.0949    
    X_17_MS91_0    Q_MS91_CETANE_0 0.9351     Q_MS91_DENSITY_0 0.8042    
    X_17_MS91_0    Q_MS91_RVP_0 0.0930     Q_MS91_FLASH_0 1.0617    
    X_17_MS95_0    COST      86.41      SAVL_STR_17_0 1.0
    X_17_MS95_0    PDEM_MS95_0 1.0
    X_17_MS95_0    Q_MS95_OCTANE_0 0.4649     Q_MS95_SULFUR_0 0.0949    
    X_17_MS95_0    Q_MS95_CETANE_0 0.9351     Q_MS95_DENSITY_0 0.8042    
    X_17_MS95_0    Q_MS95_RVP_0 0.0930     Q_MS95_FLASH_0 1.0617    
    X_17_HSD_BS6_0 COST      86.41      SAVL_STR_17_0 1.0
    X_17_HSD_BS6_0 PDEM_HSD_BS6_0 1.0
    X_17_HSD_BS6_0 Q_HSD_BS6_OCTANE_0 0.4649     Q_HSD_BS6_SULFUR_0 0.0949    
    X_17_HSD_BS6_0 Q_HSD_BS6_CETANE_0 0.9351     Q_HSD_BS6_DENSITY_0 0.8042    
    X_17_HSD_BS6_0 Q_HSD_BS6_RVP_0 0.0930     Q_HSD_BS6_FLASH_0 1.0617    
    X_17_JET_A1_0  COST      86.41      SAVL_STR_17_0 1.0
    X_17_JET_A1_0  PDEM_JET_A1_0 1.0
    X_17_JET_A1_0  Q_JET_A1_OCTANE_0 0.4649     Q_JET_A1_SULFUR_0 0.0949    
    X_17_JET_A1_0  Q_JET_A1_CETANE_0 0.9351     Q_JET_A1_DENSITY_0 0.8042    
    X_17_JET_A1_0  Q_JET_A1_RVP_0 0.0930     Q_JET_A1_FLASH_0 1.0617    
    X_17_MGO_0     COST      86.41      SAVL_STR_17_0 1.0
    X_17_MGO_0     PDEM_MGO_0 1.0
    X_17_MGO_0     Q_MGO_OCTANE_0 0.4649     Q_MGO_SULFUR_0 0.0949    
    X_17_MGO_0     Q_MGO_CETANE_0 0.9351     Q_MGO_DENSITY_0 0.8042    
    X_17_MGO_0     Q_MGO_RVP_0 0.0930     Q_MGO_FLASH_0 1.0617    
    X_17_FO380_0   COST      86.41      SAVL_STR_17_0 1.0
    X_17_FO380_0   PDEM_FO380_0 1.0
    X_17_FO380_0   Q_FO380_OCTANE_0 0.4649     Q_FO380_SULFUR_0 0.0949    
    X_17_FO380_0   Q_FO380_CETANE_0 0.9351     Q_FO380_DENSITY_0 0.8042    
    X_17_FO380_0   Q_FO380_RVP_0 0.0930     Q_FO380_FLASH_0 1.0617    
    X_18_MS91_0    COST      75.39      SAVL_STR_18_0 1.0
    X_18_MS91_0    PDEM_MS91_0 1.0
    X_18_MS91_0    Q_MS91_OCTANE_0 0.2809     Q_MS91_SULFUR_0 0.1933    
    X_18_MS91_0    Q_MS91_CETANE_0 1.0802     Q_MS91_DENSITY_0 0.8328    
    X_18_MS91_0    Q_MS91_RVP_0 0.0797     Q_MS91_FLASH_0 1.3600    
    X_18_MS95_0    COST      75.39      SAVL_STR_18_0 1.0
    X_18_MS95_0    PDEM_MS95_0 1.0
    X_18_MS95_0    Q_MS95_OCTANE_0 0.2809     Q_MS95_SULFUR_0 0.1933    
    X_18_MS95_0    Q_MS95_CETANE_0 1.0802     Q_MS95_DENSITY_0 0.8328    
    X_18_MS95_0    Q_MS95_RVP_0 0.0797     Q_MS95_FLASH_0 1.3600    
    X_18_HSD_BS6_0 COST      75.39      SAVL_STR_18_0 1.0
    X_18_HSD_BS6_0 PDEM_HSD_BS6_0 1.0
    X_18_HSD_BS6_0 Q_HSD_BS6_OCTANE_0 0.2809     Q_HSD_BS6_SULFUR_0 0.1933    
    X_18_HSD_BS6_0 Q_HSD_BS6_CETANE_0 1.0802     Q_HSD_BS6_DENSITY_0 0.8328    
    X_18_HSD_BS6_0 Q_HSD_BS6_RVP_0 0.0797     Q_HSD_BS6_FLASH_0 1.3600    
    X_18_JET_A1_0  COST      75.39      SAVL_STR_18_0 1.0
    X_18_JET_A1_0  PDEM_JET_A1_0 1.0
    X_18_JET_A1_0  Q_JET_A1_OCTANE_0 0.2809     Q_JET_A1_SULFUR_0 0.1933    
    X_18_JET_A1_0  Q_JET_A1_CETANE_0 1.0802     Q_JET_A1_DENSITY_0 0.8328    
    X_18_JET_A1_0  Q_JET_A1_RVP_0 0.0797     Q_JET_A1_FLASH_0 1.3600    
    X_18_MGO_0     COST      75.39      SAVL_STR_18_0 1.0
    X_18_MGO_0     PDEM_MGO_0 1.0
    X_18_MGO_0     Q_MGO_OCTANE_0 0.2809     Q_MGO_SULFUR_0 0.1933    
    X_18_MGO_0     Q_MGO_CETANE_0 1.0802     Q_MGO_DENSITY_0 0.8328    
    X_18_MGO_0     Q_MGO_RVP_0 0.0797     Q_MGO_FLASH_0 1.3600    
    X_18_FO380_0   COST      75.39      SAVL_STR_18_0 1.0
    X_18_FO380_0   PDEM_FO380_0 1.0
    X_18_FO380_0   Q_FO380_OCTANE_0 0.2809     Q_FO380_SULFUR_0 0.1933    
    X_18_FO380_0   Q_FO380_CETANE_0 1.0802     Q_FO380_DENSITY_0 0.8328    
    X_18_FO380_0   Q_FO380_RVP_0 0.0797     Q_FO380_FLASH_0 1.3600    
    X_19_MS91_0    COST      53.80      SAVL_STR_19_0 1.0
    X_19_MS91_0    PDEM_MS91_0 1.0
    X_19_MS91_0    Q_MS91_OCTANE_0 0.0682     Q_MS91_SULFUR_0 9.4939    
    X_19_MS91_0    Q_MS91_CETANE_0 0.6014     Q_MS91_DENSITY_0 0.9694    
    X_19_MS91_0    Q_MS91_RVP_0 0.0061     Q_MS91_FLASH_0 1.6202    
    X_19_MS95_0    COST      53.80      SAVL_STR_19_0 1.0
    X_19_MS95_0    PDEM_MS95_0 1.0
    X_19_MS95_0    Q_MS95_OCTANE_0 0.0682     Q_MS95_SULFUR_0 9.4939    
    X_19_MS95_0    Q_MS95_CETANE_0 0.6014     Q_MS95_DENSITY_0 0.9694    
    X_19_MS95_0    Q_MS95_RVP_0 0.0061     Q_MS95_FLASH_0 1.6202    
    X_19_HSD_BS6_0 COST      53.80      SAVL_STR_19_0 1.0
    X_19_HSD_BS6_0 PDEM_HSD_BS6_0 1.0
    X_19_HSD_BS6_0 Q_HSD_BS6_OCTANE_0 0.0682     Q_HSD_BS6_SULFUR_0 9.4939    
    X_19_HSD_BS6_0 Q_HSD_BS6_CETANE_0 0.6014     Q_HSD_BS6_DENSITY_0 0.9694    
    X_19_HSD_BS6_0 Q_HSD_BS6_RVP_0 0.0061     Q_HSD_BS6_FLASH_0 1.6202    
    X_19_JET_A1_0  COST      53.80      SAVL_STR_19_0 1.0
    X_19_JET_A1_0  PDEM_JET_A1_0 1.0
    X_19_JET_A1_0  Q_JET_A1_OCTANE_0 0.0682     Q_JET_A1_SULFUR_0 9.4939    
    X_19_JET_A1_0  Q_JET_A1_CETANE_0 0.6014     Q_JET_A1_DENSITY_0 0.9694    
    X_19_JET_A1_0  Q_JET_A1_RVP_0 0.0061     Q_JET_A1_FLASH_0 1.6202    
    X_19_MGO_0     COST      53.80      SAVL_STR_19_0 1.0
    X_19_MGO_0     PDEM_MGO_0 1.0
    X_19_MGO_0     Q_MGO_OCTANE_0 0.0682     Q_MGO_SULFUR_0 9.4939    
    X_19_MGO_0     Q_MGO_CETANE_0 0.6014     Q_MGO_DENSITY_0 0.9694    
    X_19_MGO_0     Q_MGO_RVP_0 0.0061     Q_MGO_FLASH_0 1.6202    
    X_19_FO380_0   COST      53.80      SAVL_STR_19_0 1.0
    X_19_FO380_0   PDEM_FO380_0 1.0
    X_19_FO380_0   Q_FO380_OCTANE_0 0.0682     Q_FO380_SULFUR_0 9.4939    
    X_19_FO380_0   Q_FO380_CETANE_0 0.6014     Q_FO380_DENSITY_0 0.9694    
    X_19_FO380_0   Q_FO380_RVP_0 0.0061     Q_FO380_FLASH_0 1.6202    
    X_20_MS91_0    COST      79.47      SAVL_STR_20_0 1.0
    X_20_MS91_0    PDEM_MS91_0 1.0
    X_20_MS91_0    Q_MS91_OCTANE_0 0.9121     Q_MS91_SULFUR_0 0.1377    
    X_20_MS91_0    Q_MS91_CETANE_0 0.4719     Q_MS91_DENSITY_0 0.7232    
    X_20_MS91_0    Q_MS91_RVP_0 1.2428     Q_MS91_FLASH_0 -0.4986   
    X_20_MS95_0    COST      79.47      SAVL_STR_20_0 1.0
    X_20_MS95_0    PDEM_MS95_0 1.0
    X_20_MS95_0    Q_MS95_OCTANE_0 0.9121     Q_MS95_SULFUR_0 0.1377    
    X_20_MS95_0    Q_MS95_CETANE_0 0.4719     Q_MS95_DENSITY_0 0.7232    
    X_20_MS95_0    Q_MS95_RVP_0 1.2428     Q_MS95_FLASH_0 -0.4986   
    X_20_HSD_BS6_0 COST      79.47      SAVL_STR_20_0 1.0
    X_20_HSD_BS6_0 PDEM_HSD_BS6_0 1.0
    X_20_HSD_BS6_0 Q_HSD_BS6_OCTANE_0 0.9121     Q_HSD_BS6_SULFUR_0 0.1377    
    X_20_HSD_BS6_0 Q_HSD_BS6_CETANE_0 0.4719     Q_HSD_BS6_DENSITY_0 0.7232    
    X_20_HSD_BS6_0 Q_HSD_BS6_RVP_0 1.2428     Q_HSD_BS6_FLASH_0 -0.4986   
    X_20_JET_A1_0  COST      79.47      SAVL_STR_20_0 1.0
    X_20_JET_A1_0  PDEM_JET_A1_0 1.0
    X_20_JET_A1_0  Q_JET_A1_OCTANE_0 0.9121     Q_JET_A1_SULFUR_0 0.1377    
    X_20_JET_A1_0  Q_JET_A1_CETANE_0 0.4719     Q_JET_A1_DENSITY_0 0.7232    
    X_20_JET_A1_0  Q_JET_A1_RVP_0 1.2428     Q_JET_A1_FLASH_0 -0.4986   
    X_20_MGO_0     COST      79.47      SAVL_STR_20_0 1.0
    X_20_MGO_0     PDEM_MGO_0 1.0
    X_20_MGO_0     Q_MGO_OCTANE_0 0.9121     Q_MGO_SULFUR_0 0.1377    
    X_20_MGO_0     Q_MGO_CETANE_0 0.4719     Q_MGO_DENSITY_0 0.7232    
    X_20_MGO_0     Q_MGO_RVP_0 1.2428     Q_MGO_FLASH_0 -0.4986   
    X_20_FO380_0   COST      79.47      SAVL_STR_20_0 1.0
    X_20_FO380_0   PDEM_FO380_0 1.0
    X_20_FO380_0   Q_FO380_OCTANE_0 0.9121     Q_FO380_SULFUR_0 0.1377    
    X_20_FO380_0   Q_FO380_CETANE_0 0.4719     Q_FO380_DENSITY_0 0.7232    
    X_20_FO380_0   Q_FO380_RVP_0 1.2428     Q_FO380_FLASH_0 -0.4986   
    X_21_MS91_0    COST      76.98      SAVL_STR_21_0 1.0
    X_21_MS91_0    PDEM_MS91_0 1.0
    X_21_MS91_0    Q_MS91_OCTANE_0 0.4903     Q_MS91_SULFUR_0 0.2499    
    X_21_MS91_0    Q_MS91_CETANE_0 0.9345     Q_MS91_DENSITY_0 0.8125    
    X_21_MS91_0    Q_MS91_RVP_0 0.2015     Q_MS91_FLASH_0 0.8571    
    X_21_MS95_0    COST      76.98      SAVL_STR_21_0 1.0
    X_21_MS95_0    PDEM_MS95_0 1.0
    X_21_MS95_0    Q_MS95_OCTANE_0 0.4903     Q_MS95_SULFUR_0 0.2499    
    X_21_MS95_0    Q_MS95_CETANE_0 0.9345     Q_MS95_DENSITY_0 0.8125    
    X_21_MS95_0    Q_MS95_RVP_0 0.2015     Q_MS95_FLASH_0 0.8571    
    X_21_HSD_BS6_0 COST      76.98      SAVL_STR_21_0 1.0
    X_21_HSD_BS6_0 PDEM_HSD_BS6_0 1.0
    X_21_HSD_BS6_0 Q_HSD_BS6_OCTANE_0 0.4903     Q_HSD_BS6_SULFUR_0 0.2499    
    X_21_HSD_BS6_0 Q_HSD_BS6_CETANE_0 0.9345     Q_HSD_BS6_DENSITY_0 0.8125    
    X_21_HSD_BS6_0 Q_HSD_BS6_RVP_0 0.2015     Q_HSD_BS6_FLASH_0 0.8571    
    X_21_JET_A1_0  COST      76.98      SAVL_STR_21_0 1.0
    X_21_JET_A1_0  PDEM_JET_A1_0 1.0
    X_21_JET_A1_0  Q_JET_A1_OCTANE_0 0.4903     Q_JET_A1_SULFUR_0 0.2499    
    X_21_JET_A1_0  Q_JET_A1_CETANE_0 0.9345     Q_JET_A1_DENSITY_0 0.8125    
    X_21_JET_A1_0  Q_JET_A1_RVP_0 0.2015     Q_JET_A1_FLASH_0 0.8571    
    X_21_MGO_0     COST      76.98      SAVL_STR_21_0 1.0
    X_21_MGO_0     PDEM_MGO_0 1.0
    X_21_MGO_0     Q_MGO_OCTANE_0 0.4903     Q_MGO_SULFUR_0 0.2499    
    X_21_MGO_0     Q_MGO_CETANE_0 0.9345     Q_MGO_DENSITY_0 0.8125    
    X_21_MGO_0     Q_MGO_RVP_0 0.2015     Q_MGO_FLASH_0 0.8571    
    X_21_FO380_0   COST      76.98      SAVL_STR_21_0 1.0
    X_21_FO380_0   PDEM_FO380_0 1.0
    X_21_FO380_0   Q_FO380_OCTANE_0 0.4903     Q_FO380_SULFUR_0 0.2499    
    X_21_FO380_0   Q_FO380_CETANE_0 0.9345     Q_FO380_DENSITY_0 0.8125    
    X_21_FO380_0   Q_FO380_RVP_0 0.2015     Q_FO380_FLASH_0 0.8571    
    X_22_MS91_0    COST      78.90      SAVL_STR_22_0 1.0
    X_22_MS91_0    PDEM_MS91_0 1.0
    X_22_MS91_0    Q_MS91_OCTANE_0 0.2635     Q_MS91_SULFUR_0 0.1381    
    X_22_MS91_0    Q_MS91_CETANE_0 1.1858     Q_MS91_DENSITY_0 0.8418    
    X_22_MS91_0    Q_MS91_RVP_0 0.0789     Q_MS91_FLASH_0 1.1394    
    X_22_MS95_0    COST      78.90      SAVL_STR_22_0 1.0
    X_22_MS95_0    PDEM_MS95_0 1.0
    X_22_MS95_0    Q_MS95_OCTANE_0 0.2635     Q_MS95_SULFUR_0 0.1381    
    X_22_MS95_0    Q_MS95_CETANE_0 1.1858     Q_MS95_DENSITY_0 0.8418    
    X_22_MS95_0    Q_MS95_RVP_0 0.0789     Q_MS95_FLASH_0 1.1394    
    X_22_HSD_BS6_0 COST      78.90      SAVL_STR_22_0 1.0
    X_22_HSD_BS6_0 PDEM_HSD_BS6_0 1.0
    X_22_HSD_BS6_0 Q_HSD_BS6_OCTANE_0 0.2635     Q_HSD_BS6_SULFUR_0 0.1381    
    X_22_HSD_BS6_0 Q_HSD_BS6_CETANE_0 1.1858     Q_HSD_BS6_DENSITY_0 0.8418    
    X_22_HSD_BS6_0 Q_HSD_BS6_RVP_0 0.0789     Q_HSD_BS6_FLASH_0 1.1394    
    X_22_JET_A1_0  COST      78.90      SAVL_STR_22_0 1.0
    X_22_JET_A1_0  PDEM_JET_A1_0 1.0
    X_22_JET_A1_0  Q_JET_A1_OCTANE_0 0.2635     Q_JET_A1_SULFUR_0 0.1381    
    X_22_JET_A1_0  Q_JET_A1_CETANE_0 1.1858     Q_JET_A1_DENSITY_0 0.8418    
    X_22_JET_A1_0  Q_JET_A1_RVP_0 0.0789     Q_JET_A1_FLASH_0 1.1394    
    X_22_MGO_0     COST      78.90      SAVL_STR_22_0 1.0
    X_22_MGO_0     PDEM_MGO_0 1.0
    X_22_MGO_0     Q_MGO_OCTANE_0 0.2635     Q_MGO_SULFUR_0 0.1381    
    X_22_MGO_0     Q_MGO_CETANE_0 1.1858     Q_MGO_DENSITY_0 0.8418    
    X_22_MGO_0     Q_MGO_RVP_0 0.0789     Q_MGO_FLASH_0 1.1394    
    X_22_FO380_0   COST      78.90      SAVL_STR_22_0 1.0
    X_22_FO380_0   PDEM_FO380_0 1.0
    X_22_FO380_0   Q_FO380_OCTANE_0 0.2635     Q_FO380_SULFUR_0 0.1381    
    X_22_FO380_0   Q_FO380_CETANE_0 1.1858     Q_FO380_DENSITY_0 0.8418    
    X_22_FO380_0   Q_FO380_RVP_0 0.0789     Q_FO380_FLASH_0 1.1394    
    X_23_MS91_0    COST      50.77      SAVL_STR_23_0 1.0
    X_23_MS91_0    PDEM_MS91_0 1.0
    X_23_MS91_0    Q_MS91_OCTANE_0 0.1793     Q_MS91_SULFUR_0 9.9731    
    X_23_MS91_0    Q_MS91_CETANE_0 0.5571     Q_MS91_DENSITY_0 0.9624    
    X_23_MS91_0    Q_MS91_RVP_0 0.0096     Q_MS91_FLASH_0 1.6785    
    X_23_MS95_0    COST      50.77      SAVL_STR_23_0 1.0
    X_23_MS95_0    PDEM_MS95_0 1.0
    X_23_MS95_0    Q_MS95_OCTANE_0 0.1793     Q_MS95_SULFUR_0 9.9731    
    X_23_MS95_0    Q_MS95_CETANE_0 0.5571     Q_MS95_DENSITY_0 0.9624    
    X_23_MS95_0    Q_MS95_RVP_0 0.0096     Q_MS95_FLASH_0 1.6785    
    X_23_HSD_BS6_0 COST      50.77      SAVL_STR_23_0 1.0
    X_23_HSD_BS6_0 PDEM_HSD_BS6_0 1.0
    X_23_HSD_BS6_0 Q_HSD_BS6_OCTANE_0 0.1793     Q_HSD_BS6_SULFUR_0 9.9731    
    X_23_HSD_BS6_0 Q_HSD_BS6_CETANE_0 0.5571     Q_HSD_BS6_DENSITY_0 0.9624    
    X_23_HSD_BS6_0 Q_HSD_BS6_RVP_0 0.0096     Q_HSD_BS6_FLASH_0 1.6785    
    X_23_JET_A1_0  COST      50.77      SAVL_STR_23_0 1.0
    X_23_JET_A1_0  PDEM_JET_A1_0 1.0
    X_23_JET_A1_0  Q_JET_A1_OCTANE_0 0.1793     Q_JET_A1_SULFUR_0 9.9731    
    X_23_JET_A1_0  Q_JET_A1_CETANE_0 0.5571     Q_JET_A1_DENSITY_0 0.9624    
    X_23_JET_A1_0  Q_JET_A1_RVP_0 0.0096     Q_JET_A1_FLASH_0 1.6785    
    X_23_MGO_0     COST      50.77      SAVL_STR_23_0 1.0
    X_23_MGO_0     PDEM_MGO_0 1.0
    X_23_MGO_0     Q_MGO_OCTANE_0 0.1793     Q_MGO_SULFUR_0 9.9731    
    X_23_MGO_0     Q_MGO_CETANE_0 0.5571     Q_MGO_DENSITY_0 0.9624    
    X_23_MGO_0     Q_MGO_RVP_0 0.0096     Q_MGO_FLASH_0 1.6785    
    X_23_FO380_0   COST      50.77      SAVL_STR_23_0 1.0
    X_23_FO380_0   PDEM_FO380_0 1.0
    X_23_FO380_0   Q_FO380_OCTANE_0 0.1793     Q_FO380_SULFUR_0 9.9731    
    X_23_FO380_0   Q_FO380_CETANE_0 0.5571     Q_FO380_DENSITY_0 0.9624    
    X_23_FO380_0   Q_FO380_RVP_0 0.0096     Q_FO380_FLASH_0 1.6785    
    X_24_MS91_0    COST      83.85      SAVL_STR_24_0 1.0
    X_24_MS91_0    PDEM_MS91_0 1.0
    X_24_MS91_0    Q_MS91_OCTANE_0 0.9420     Q_MS91_SULFUR_0 0.1320    
    X_24_MS91_0    Q_MS91_CETANE_0 0.4101     Q_MS91_DENSITY_0 0.7223    
    X_24_MS91_0    Q_MS91_RVP_0 1.6996     Q_MS91_FLASH_0 -0.3984   
    X_24_MS95_0    COST      83.85      SAVL_STR_24_0 1.0
    X_24_MS95_0    PDEM_MS95_0 1.0
    X_24_MS95_0    Q_MS95_OCTANE_0 0.9420     Q_MS95_SULFUR_0 0.1320    
    X_24_MS95_0    Q_MS95_CETANE_0 0.4101     Q_MS95_DENSITY_0 0.7223    
    X_24_MS95_0    Q_MS95_RVP_0 1.6996     Q_MS95_FLASH_0 -0.3984   
    X_24_HSD_BS6_0 COST      83.85      SAVL_STR_24_0 1.0
    X_24_HSD_BS6_0 PDEM_HSD_BS6_0 1.0
    X_24_HSD_BS6_0 Q_HSD_BS6_OCTANE_0 0.9420     Q_HSD_BS6_SULFUR_0 0.1320    
    X_24_HSD_BS6_0 Q_HSD_BS6_CETANE_0 0.4101     Q_HSD_BS6_DENSITY_0 0.7223    
    X_24_HSD_BS6_0 Q_HSD_BS6_RVP_0 1.6996     Q_HSD_BS6_FLASH_0 -0.3984   
    X_24_JET_A1_0  COST      83.85      SAVL_STR_24_0 1.0
    X_24_JET_A1_0  PDEM_JET_A1_0 1.0
    X_24_JET_A1_0  Q_JET_A1_OCTANE_0 0.9420     Q_JET_A1_SULFUR_0 0.1320    
    X_24_JET_A1_0  Q_JET_A1_CETANE_0 0.4101     Q_JET_A1_DENSITY_0 0.7223    
    X_24_JET_A1_0  Q_JET_A1_RVP_0 1.6996     Q_JET_A1_FLASH_0 -0.3984   
    X_24_MGO_0     COST      83.85      SAVL_STR_24_0 1.0
    X_24_MGO_0     PDEM_MGO_0 1.0
    X_24_MGO_0     Q_MGO_OCTANE_0 0.9420     Q_MGO_SULFUR_0 0.1320    
    X_24_MGO_0     Q_MGO_CETANE_0 0.4101     Q_MGO_DENSITY_0 0.7223    
    X_24_MGO_0     Q_MGO_RVP_0 1.6996     Q_MGO_FLASH_0 -0.3984   
    X_24_FO380_0   COST      83.85      SAVL_STR_24_0 1.0
    X_24_FO380_0   PDEM_FO380_0 1.0
    X_24_FO380_0   Q_FO380_OCTANE_0 0.9420     Q_FO380_SULFUR_0 0.1320    
    X_24_FO380_0   Q_FO380_CETANE_0 0.4101     Q_FO380_DENSITY_0 0.7223    
    X_24_FO380_0   Q_FO380_RVP_0 1.6996     Q_FO380_FLASH_0 -0.3984   
    X_25_MS91_0    COST      88.90      SAVL_STR_25_0 1.0
    X_25_MS91_0    PDEM_MS91_0 1.0
    X_25_MS91_0    Q_MS91_OCTANE_0 0.4773     Q_MS91_SULFUR_0 0.1082    
    X_25_MS91_0    Q_MS91_CETANE_0 0.9371     Q_MS91_DENSITY_0 0.7925    
    X_25_MS91_0    Q_MS91_RVP_0 0.1202     Q_MS91_FLASH_0 0.8176    
    X_25_MS95_0    COST      88.90      SAVL_STR_25_0 1.0
    X_25_MS95_0    PDEM_MS95_0 1.0
    X_25_MS95_0    Q_MS95_OCTANE_0 0.4773     Q_MS95_SULFUR_0 0.1082    
    X_25_MS95_0    Q_MS95_CETANE_0 0.9371     Q_MS95_DENSITY_0 0.7925    
    X_25_MS95_0    Q_MS95_RVP_0 0.1202     Q_MS95_FLASH_0 0.8176    
    X_25_HSD_BS6_0 COST      88.90      SAVL_STR_25_0 1.0
    X_25_HSD_BS6_0 PDEM_HSD_BS6_0 1.0
    X_25_HSD_BS6_0 Q_HSD_BS6_OCTANE_0 0.4773     Q_HSD_BS6_SULFUR_0 0.1082    
    X_25_HSD_BS6_0 Q_HSD_BS6_CETANE_0 0.9371     Q_HSD_BS6_DENSITY_0 0.7925    
    X_25_HSD_BS6_0 Q_HSD_BS6_RVP_0 0.1202     Q_HSD_BS6_FLASH_0 0.8176    
    X_25_JET_A1_0  COST      88.90      SAVL_STR_25_0 1.0
    X_25_JET_A1_0  PDEM_JET_A1_0 1.0
    X_25_JET_A1_0  Q_JET_A1_OCTANE_0 0.4773     Q_JET_A1_SULFUR_0 0.1082    
    X_25_JET_A1_0  Q_JET_A1_CETANE_0 0.9371     Q_JET_A1_DENSITY_0 0.7925    
    X_25_JET_A1_0  Q_JET_A1_RVP_0 0.1202     Q_JET_A1_FLASH_0 0.8176    
    X_25_MGO_0     COST      88.90      SAVL_STR_25_0 1.0
    X_25_MGO_0     PDEM_MGO_0 1.0
    X_25_MGO_0     Q_MGO_OCTANE_0 0.4773     Q_MGO_SULFUR_0 0.1082    
    X_25_MGO_0     Q_MGO_CETANE_0 0.9371     Q_MGO_DENSITY_0 0.7925    
    X_25_MGO_0     Q_MGO_RVP_0 0.1202     Q_MGO_FLASH_0 0.8176    
    X_25_FO380_0   COST      88.90      SAVL_STR_25_0 1.0
    X_25_FO380_0   PDEM_FO380_0 1.0
    X_25_FO380_0   Q_FO380_OCTANE_0 0.4773     Q_FO380_SULFUR_0 0.1082    
    X_25_FO380_0   Q_FO380_CETANE_0 0.9371     Q_FO380_DENSITY_0 0.7925    
    X_25_FO380_0   Q_FO380_RVP_0 0.1202     Q_FO380_FLASH_0 0.8176    
    X_26_MS91_0    COST      87.76      SAVL_STR_26_0 1.0
    X_26_MS91_0    PDEM_MS91_0 1.0
    X_26_MS91_0    Q_MS91_OCTANE_0 0.2398     Q_MS91_SULFUR_0 0.2047    
    X_26_MS91_0    Q_MS91_CETANE_0 1.1310     Q_MS91_DENSITY_0 0.8356    
    X_26_MS91_0    Q_MS91_RVP_0 0.0770     Q_MS91_FLASH_0 1.4982    
    X_26_MS95_0    COST      87.76      SAVL_STR_26_0 1.0
    X_26_MS95_0    PDEM_MS95_0 1.0
    X_26_MS95_0    Q_MS95_OCTANE_0 0.2398     Q_MS95_SULFUR_0 0.2047    
    X_26_MS95_0    Q_MS95_CETANE_0 1.1310     Q_MS95_DENSITY_0 0.8356    
    X_26_MS95_0    Q_MS95_RVP_0 0.0770     Q_MS95_FLASH_0 1.4982    
    X_26_HSD_BS6_0 COST      87.76      SAVL_STR_26_0 1.0
    X_26_HSD_BS6_0 PDEM_HSD_BS6_0 1.0
    X_26_HSD_BS6_0 Q_HSD_BS6_OCTANE_0 0.2398     Q_HSD_BS6_SULFUR_0 0.2047    
    X_26_HSD_BS6_0 Q_HSD_BS6_CETANE_0 1.1310     Q_HSD_BS6_DENSITY_0 0.8356    
    X_26_HSD_BS6_0 Q_HSD_BS6_RVP_0 0.0770     Q_HSD_BS6_FLASH_0 1.4982    
    X_26_JET_A1_0  COST      87.76      SAVL_STR_26_0 1.0
    X_26_JET_A1_0  PDEM_JET_A1_0 1.0
    X_26_JET_A1_0  Q_JET_A1_OCTANE_0 0.2398     Q_JET_A1_SULFUR_0 0.2047    
    X_26_JET_A1_0  Q_JET_A1_CETANE_0 1.1310     Q_JET_A1_DENSITY_0 0.8356    
    X_26_JET_A1_0  Q_JET_A1_RVP_0 0.0770     Q_JET_A1_FLASH_0 1.4982    
    X_26_MGO_0     COST      87.76      SAVL_STR_26_0 1.0
    X_26_MGO_0     PDEM_MGO_0 1.0
    X_26_MGO_0     Q_MGO_OCTANE_0 0.2398     Q_MGO_SULFUR_0 0.2047    
    X_26_MGO_0     Q_MGO_CETANE_0 1.1310     Q_MGO_DENSITY_0 0.8356    
    X_26_MGO_0     Q_MGO_RVP_0 0.0770     Q_MGO_FLASH_0 1.4982    
    X_26_FO380_0   COST      87.76      SAVL_STR_26_0 1.0
    X_26_FO380_0   PDEM_FO380_0 1.0
    X_26_FO380_0   Q_FO380_OCTANE_0 0.2398     Q_FO380_SULFUR_0 0.2047    
    X_26_FO380_0   Q_FO380_CETANE_0 1.1310     Q_FO380_DENSITY_0 0.8356    
    X_26_FO380_0   Q_FO380_RVP_0 0.0770     Q_FO380_FLASH_0 1.4982    
    X_27_MS91_0    COST      57.21      SAVL_STR_27_0 1.0
    X_27_MS91_0    PDEM_MS91_0 1.0
    X_27_MS91_0    Q_MS91_OCTANE_0 0.0732     Q_MS91_SULFUR_0 10.9342   
    X_27_MS91_0    Q_MS91_CETANE_0 0.7906     Q_MS91_DENSITY_0 0.9690    
    X_27_MS91_0    Q_MS91_RVP_0 0.0118     Q_MS91_FLASH_0 2.1480    
    X_27_MS95_0    COST      57.21      SAVL_STR_27_0 1.0
    X_27_MS95_0    PDEM_MS95_0 1.0
    X_27_MS95_0    Q_MS95_OCTANE_0 0.0732     Q_MS95_SULFUR_0 10.9342   
    X_27_MS95_0    Q_MS95_CETANE_0 0.7906     Q_MS95_DENSITY_0 0.9690    
    X_27_MS95_0    Q_MS95_RVP_0 0.0118     Q_MS95_FLASH_0 2.1480    
    X_27_HSD_BS6_0 COST      57.21      SAVL_STR_27_0 1.0
    X_27_HSD_BS6_0 PDEM_HSD_BS6_0 1.0
    X_27_HSD_BS6_0 Q_HSD_BS6_OCTANE_0 0.0732     Q_HSD_BS6_SULFUR_0 10.9342   
    X_27_HSD_BS6_0 Q_HSD_BS6_CETANE_0 0.7906     Q_HSD_BS6_DENSITY_0 0.9690    
    X_27_HSD_BS6_0 Q_HSD_BS6_RVP_0 0.0118     Q_HSD_BS6_FLASH_0 2.1480    
    X_27_JET_A1_0  COST      57.21      SAVL_STR_27_0 1.0
    X_27_JET_A1_0  PDEM_JET_A1_0 1.0
    X_27_JET_A1_0  Q_JET_A1_OCTANE_0 0.0732     Q_JET_A1_SULFUR_0 10.9342   
    X_27_JET_A1_0  Q_JET_A1_CETANE_0 0.7906     Q_JET_A1_DENSITY_0 0.9690    
    X_27_JET_A1_0  Q_JET_A1_RVP_0 0.0118     Q_JET_A1_FLASH_0 2.1480    
    X_27_MGO_0     COST      57.21      SAVL_STR_27_0 1.0
    X_27_MGO_0     PDEM_MGO_0 1.0
    X_27_MGO_0     Q_MGO_OCTANE_0 0.0732     Q_MGO_SULFUR_0 10.9342   
    X_27_MGO_0     Q_MGO_CETANE_0 0.7906     Q_MGO_DENSITY_0 0.9690    
    X_27_MGO_0     Q_MGO_RVP_0 0.0118     Q_MGO_FLASH_0 2.1480    
    X_27_FO380_0   COST      57.21      SAVL_STR_27_0 1.0
    X_27_FO380_0   PDEM_FO380_0 1.0
    X_27_FO380_0   Q_FO380_OCTANE_0 0.0732     Q_FO380_SULFUR_0 10.9342   
    X_27_FO380_0   Q_FO380_CETANE_0 0.7906     Q_FO380_DENSITY_0 0.9690    
    X_27_FO380_0   Q_FO380_RVP_0 0.0118     Q_FO380_FLASH_0 2.1480    
    X_28_MS91_0    COST      78.76      SAVL_STR_28_0 1.0
    X_28_MS91_0    PDEM_MS91_0 1.0
    X_28_MS91_0    Q_MS91_OCTANE_0 0.9504     Q_MS91_SULFUR_0 0.1309    
    X_28_MS91_0    Q_MS91_CETANE_0 0.3315     Q_MS91_DENSITY_0 0.7632    
    X_28_MS91_0    Q_MS91_RVP_0 1.1481     Q_MS91_FLASH_0 -0.7885   
    X_28_MS95_0    COST      78.76      SAVL_STR_28_0 1.0
    X_28_MS95_0    PDEM_MS95_0 1.0
    X_28_MS95_0    Q_MS95_OCTANE_0 0.9504     Q_MS95_SULFUR_0 0.1309    
    X_28_MS95_0    Q_MS95_CETANE_0 0.3315     Q_MS95_DENSITY_0 0.7632    
    X_28_MS95_0    Q_MS95_RVP_0 1.1481     Q_MS95_FLASH_0 -0.7885   
    X_28_HSD_BS6_0 COST      78.76      SAVL_STR_28_0 1.0
    X_28_HSD_BS6_0 PDEM_HSD_BS6_0 1.0
    X_28_HSD_BS6_0 Q_HSD_BS6_OCTANE_0 0.9504     Q_HSD_BS6_SULFUR_0 0.1309    
    X_28_HSD_BS6_0 Q_HSD_BS6_CETANE_0 0.3315     Q_HSD_BS6_DENSITY_0 0.7632    
    X_28_HSD_BS6_0 Q_HSD_BS6_RVP_0 1.1481     Q_HSD_BS6_FLASH_0 -0.7885   
    X_28_JET_A1_0  COST      78.76      SAVL_STR_28_0 1.0
    X_28_JET_A1_0  PDEM_JET_A1_0 1.0
    X_28_JET_A1_0  Q_JET_A1_OCTANE_0 0.9504     Q_JET_A1_SULFUR_0 0.1309    
    X_28_JET_A1_0  Q_JET_A1_CETANE_0 0.3315     Q_JET_A1_DENSITY_0 0.7632    
    X_28_JET_A1_0  Q_JET_A1_RVP_0 1.1481     Q_JET_A1_FLASH_0 -0.7885   
    X_28_MGO_0     COST      78.76      SAVL_STR_28_0 1.0
    X_28_MGO_0     PDEM_MGO_0 1.0
    X_28_MGO_0     Q_MGO_OCTANE_0 0.9504     Q_MGO_SULFUR_0 0.1309    
    X_28_MGO_0     Q_MGO_CETANE_0 0.3315     Q_MGO_DENSITY_0 0.7632    
    X_28_MGO_0     Q_MGO_RVP_0 1.1481     Q_MGO_FLASH_0 -0.7885   
    X_28_FO380_0   COST      78.76      SAVL_STR_28_0 1.0
    X_28_FO380_0   PDEM_FO380_0 1.0
    X_28_FO380_0   Q_FO380_OCTANE_0 0.9504     Q_FO380_SULFUR_0 0.1309    
    X_28_FO380_0   Q_FO380_CETANE_0 0.3315     Q_FO380_DENSITY_0 0.7632    
    X_28_FO380_0   Q_FO380_RVP_0 1.1481     Q_FO380_FLASH_0 -0.7885   
    X_29_MS91_0    COST      85.13      SAVL_STR_29_0 1.0
    X_29_MS91_0    PDEM_MS91_0 1.0
    X_29_MS91_0    Q_MS91_OCTANE_0 0.3853     Q_MS91_SULFUR_0 0.0920    
    X_29_MS91_0    Q_MS91_CETANE_0 1.0181     Q_MS91_DENSITY_0 0.7936    
    X_29_MS91_0    Q_MS91_RVP_0 0.1589     Q_MS91_FLASH_0 0.9858    
    X_29_MS95_0    COST      85.13      SAVL_STR_29_0 1.0
    X_29_MS95_0    PDEM_MS95_0 1.0
    X_29_MS95_0    Q_MS95_OCTANE_0 0.3853     Q_MS95_SULFUR_0 0.0920    
    X_29_MS95_0    Q_MS95_CETANE_0 1.0181     Q_MS95_DENSITY_0 0.7936    
    X_29_MS95_0    Q_MS95_RVP_0 0.1589     Q_MS95_FLASH_0 0.9858    
    X_29_HSD_BS6_0 COST      85.13      SAVL_STR_29_0 1.0
    X_29_HSD_BS6_0 PDEM_HSD_BS6_0 1.0
    X_29_HSD_BS6_0 Q_HSD_BS6_OCTANE_0 0.3853     Q_HSD_BS6_SULFUR_0 0.0920    
    X_29_HSD_BS6_0 Q_HSD_BS6_CETANE_0 1.0181     Q_HSD_BS6_DENSITY_0 0.7936    
    X_29_HSD_BS6_0 Q_HSD_BS6_RVP_0 0.1589     Q_HSD_BS6_FLASH_0 0.9858    
    X_29_JET_A1_0  COST      85.13      SAVL_STR_29_0 1.0
    X_29_JET_A1_0  PDEM_JET_A1_0 1.0
    X_29_JET_A1_0  Q_JET_A1_OCTANE_0 0.3853     Q_JET_A1_SULFUR_0 0.0920    
    X_29_JET_A1_0  Q_JET_A1_CETANE_0 1.0181     Q_JET_A1_DENSITY_0 0.7936    
    X_29_JET_A1_0  Q_JET_A1_RVP_0 0.1589     Q_JET_A1_FLASH_0 0.9858    
    X_29_MGO_0     COST      85.13      SAVL_STR_29_0 1.0
    X_29_MGO_0     PDEM_MGO_0 1.0
    X_29_MGO_0     Q_MGO_OCTANE_0 0.3853     Q_MGO_SULFUR_0 0.0920    
    X_29_MGO_0     Q_MGO_CETANE_0 1.0181     Q_MGO_DENSITY_0 0.7936    
    X_29_MGO_0     Q_MGO_RVP_0 0.1589     Q_MGO_FLASH_0 0.9858    
    X_29_FO380_0   COST      85.13      SAVL_STR_29_0 1.0
    X_29_FO380_0   PDEM_FO380_0 1.0
    X_29_FO380_0   Q_FO380_OCTANE_0 0.3853     Q_FO380_SULFUR_0 0.0920    
    X_29_FO380_0   Q_FO380_CETANE_0 1.0181     Q_FO380_DENSITY_0 0.7936    
    X_29_FO380_0   Q_FO380_RVP_0 0.1589     Q_FO380_FLASH_0 0.9858    
    X_30_MS91_0    COST      81.34      SAVL_STR_30_0 1.0
    X_30_MS91_0    PDEM_MS91_0 1.0
    X_30_MS91_0    Q_MS91_OCTANE_0 0.2784     Q_MS91_SULFUR_0 0.2363    
    X_30_MS91_0    Q_MS91_CETANE_0 1.0809     Q_MS91_DENSITY_0 0.8429    
    X_30_MS91_0    Q_MS91_RVP_0 0.0267     Q_MS91_FLASH_0 1.2583    
    X_30_MS95_0    COST      81.34      SAVL_STR_30_0 1.0
    X_30_MS95_0    PDEM_MS95_0 1.0
    X_30_MS95_0    Q_MS95_OCTANE_0 0.2784     Q_MS95_SULFUR_0 0.2363    
    X_30_MS95_0    Q_MS95_CETANE_0 1.0809     Q_MS95_DENSITY_0 0.8429    
    X_30_MS95_0    Q_MS95_RVP_0 0.0267     Q_MS95_FLASH_0 1.2583    
    X_30_HSD_BS6_0 COST      81.34      SAVL_STR_30_0 1.0
    X_30_HSD_BS6_0 PDEM_HSD_BS6_0 1.0
    X_30_HSD_BS6_0 Q_HSD_BS6_OCTANE_0 0.2784     Q_HSD_BS6_SULFUR_0 0.2363    
    X_30_HSD_BS6_0 Q_HSD_BS6_CETANE_0 1.0809     Q_HSD_BS6_DENSITY_0 0.8429    
    X_30_HSD_BS6_0 Q_HSD_BS6_RVP_0 0.0267     Q_HSD_BS6_FLASH_0 1.2583    
    X_30_JET_A1_0  COST      81.34      SAVL_STR_30_0 1.0
    X_30_JET_A1_0  PDEM_JET_A1_0 1.0
    X_30_JET_A1_0  Q_JET_A1_OCTANE_0 0.2784     Q_JET_A1_SULFUR_0 0.2363    
    X_30_JET_A1_0  Q_JET_A1_CETANE_0 1.0809     Q_JET_A1_DENSITY_0 0.8429    
    X_30_JET_A1_0  Q_JET_A1_RVP_0 0.0267     Q_JET_A1_FLASH_0 1.2583    
    X_30_MGO_0     COST      81.34      SAVL_STR_30_0 1.0
    X_30_MGO_0     PDEM_MGO_0 1.0
    X_30_MGO_0     Q_MGO_OCTANE_0 0.2784     Q_MGO_SULFUR_0 0.2363    
    X_30_MGO_0     Q_MGO_CETANE_0 1.0809     Q_MGO_DENSITY_0 0.8429    
    X_30_MGO_0     Q_MGO_RVP_0 0.0267     Q_MGO_FLASH_0 1.2583    
    X_30_FO380_0   COST      81.34      SAVL_STR_30_0 1.0
    X_30_FO380_0   PDEM_FO380_0 1.0
    X_30_FO380_0   Q_FO380_OCTANE_0 0.2784     Q_FO380_SULFUR_0 0.2363    
    X_30_FO380_0   Q_FO380_CETANE_0 1.0809     Q_FO380_DENSITY_0 0.8429    
    X_30_FO380_0   Q_FO380_RVP_0 0.0267     Q_FO380_FLASH_0 1.2583    
    X_31_MS91_0    COST      50.10      SAVL_STR_31_0 1.0
    X_31_MS91_0    PDEM_MS91_0 1.0
    X_31_MS91_0    Q_MS91_OCTANE_0 0.0974     Q_MS91_SULFUR_0 20.0373   
    X_31_MS91_0    Q_MS91_CETANE_0 0.5218     Q_MS91_DENSITY_0 0.9629    
    X_31_MS91_0    Q_MS91_RVP_0 0.0200     Q_MS91_FLASH_0 2.3961    
    X_31_MS95_0    COST      50.10      SAVL_STR_31_0 1.0
    X_31_MS95_0    PDEM_MS95_0 1.0
    X_31_MS95_0    Q_MS95_OCTANE_0 0.0974     Q_MS95_SULFUR_0 20.0373   
    X_31_MS95_0    Q_MS95_CETANE_0 0.5218     Q_MS95_DENSITY_0 0.9629    
    X_31_MS95_0    Q_MS95_RVP_0 0.0200     Q_MS95_FLASH_0 2.3961    
    X_31_HSD_BS6_0 COST      50.10      SAVL_STR_31_0 1.0
    X_31_HSD_BS6_0 PDEM_HSD_BS6_0 1.0
    X_31_HSD_BS6_0 Q_HSD_BS6_OCTANE_0 0.0974     Q_HSD_BS6_SULFUR_0 20.0373   
    X_31_HSD_BS6_0 Q_HSD_BS6_CETANE_0 0.5218     Q_HSD_BS6_DENSITY_0 0.9629    
    X_31_HSD_BS6_0 Q_HSD_BS6_RVP_0 0.0200     Q_HSD_BS6_FLASH_0 2.3961    
    X_31_JET_A1_0  COST      50.10      SAVL_STR_31_0 1.0
    X_31_JET_A1_0  PDEM_JET_A1_0 1.0
    X_31_JET_A1_0  Q_JET_A1_OCTANE_0 0.0974     Q_JET_A1_SULFUR_0 20.0373   
    X_31_JET_A1_0  Q_JET_A1_CETANE_0 0.5218     Q_JET_A1_DENSITY_0 0.9629    
    X_31_JET_A1_0  Q_JET_A1_RVP_0 0.0200     Q_JET_A1_FLASH_0 2.3961    
    X_31_MGO_0     COST      50.10      SAVL_STR_31_0 1.0
    X_31_MGO_0     PDEM_MGO_0 1.0
    X_31_MGO_0     Q_MGO_OCTANE_0 0.0974     Q_MGO_SULFUR_0 20.0373   
    X_31_MGO_0     Q_MGO_CETANE_0 0.5218     Q_MGO_DENSITY_0 0.9629    
    X_31_MGO_0     Q_MGO_RVP_0 0.0200     Q_MGO_FLASH_0 2.3961    
    X_31_FO380_0   COST      50.10      SAVL_STR_31_0 1.0
    X_31_FO380_0   PDEM_FO380_0 1.0
    X_31_FO380_0   Q_FO380_OCTANE_0 0.0974     Q_FO380_SULFUR_0 20.0373   
    X_31_FO380_0   Q_FO380_CETANE_0 0.5218     Q_FO380_DENSITY_0 0.9629    
    X_31_FO380_0   Q_FO380_RVP_0 0.0200     Q_FO380_FLASH_0 2.3961    
    X_32_MS91_0    COST      73.20      SAVL_STR_32_0 1.0
    X_32_MS91_0    PDEM_MS91_0 1.0
    X_32_MS91_0    Q_MS91_OCTANE_0 0.9171     Q_MS91_SULFUR_0 0.1413    
    X_32_MS91_0    Q_MS91_CETANE_0 0.4762     Q_MS91_DENSITY_0 0.7596    
    X_32_MS91_0    Q_MS91_RVP_0 1.3217     Q_MS91_FLASH_0 -0.8054   
    X_32_MS95_0    COST      73.20      SAVL_STR_32_0 1.0
    X_32_MS95_0    PDEM_MS95_0 1.0
    X_32_MS95_0    Q_MS95_OCTANE_0 0.9171     Q_MS95_SULFUR_0 0.1413    
    X_32_MS95_0    Q_MS95_CETANE_0 0.4762     Q_MS95_DENSITY_0 0.7596    
    X_32_MS95_0    Q_MS95_RVP_0 1.3217     Q_MS95_FLASH_0 -0.8054   
    X_32_HSD_BS6_0 COST      73.20      SAVL_STR_32_0 1.0
    X_32_HSD_BS6_0 PDEM_HSD_BS6_0 1.0
    X_32_HSD_BS6_0 Q_HSD_BS6_OCTANE_0 0.9171     Q_HSD_BS6_SULFUR_0 0.1413    
    X_32_HSD_BS6_0 Q_HSD_BS6_CETANE_0 0.4762     Q_HSD_BS6_DENSITY_0 0.7596    
    X_32_HSD_BS6_0 Q_HSD_BS6_RVP_0 1.3217     Q_HSD_BS6_FLASH_0 -0.8054   
    X_32_JET_A1_0  COST      73.20      SAVL_STR_32_0 1.0
    X_32_JET_A1_0  PDEM_JET_A1_0 1.0
    X_32_JET_A1_0  Q_JET_A1_OCTANE_0 0.9171     Q_JET_A1_SULFUR_0 0.1413    
    X_32_JET_A1_0  Q_JET_A1_CETANE_0 0.4762     Q_JET_A1_DENSITY_0 0.7596    
    X_32_JET_A1_0  Q_JET_A1_RVP_0 1.3217     Q_JET_A1_FLASH_0 -0.8054   
    X_32_MGO_0     COST      73.20      SAVL_STR_32_0 1.0
    X_32_MGO_0     PDEM_MGO_0 1.0
    X_32_MGO_0     Q_MGO_OCTANE_0 0.9171     Q_MGO_SULFUR_0 0.1413    
    X_32_MGO_0     Q_MGO_CETANE_0 0.4762     Q_MGO_DENSITY_0 0.7596    
    X_32_MGO_0     Q_MGO_RVP_0 1.3217     Q_MGO_FLASH_0 -0.8054   
    X_32_FO380_0   COST      73.20      SAVL_STR_32_0 1.0
    X_32_FO380_0   PDEM_FO380_0 1.0
    X_32_FO380_0   Q_FO380_OCTANE_0 0.9171     Q_FO380_SULFUR_0 0.1413    
    X_32_FO380_0   Q_FO380_CETANE_0 0.4762     Q_FO380_DENSITY_0 0.7596    
    X_32_FO380_0   Q_FO380_RVP_0 1.3217     Q_FO380_FLASH_0 -0.8054   
    X_33_MS91_0    COST      85.55      SAVL_STR_33_0 1.0
    X_33_MS91_0    PDEM_MS91_0 1.0
    X_33_MS91_0    Q_MS91_OCTANE_0 0.4418     Q_MS91_SULFUR_0 0.3955    
    X_33_MS91_0    Q_MS91_CETANE_0 0.9708     Q_MS91_DENSITY_0 0.7853    
    X_33_MS91_0    Q_MS91_RVP_0 0.2034     Q_MS91_FLASH_0 0.8898    
    X_33_MS95_0    COST      85.55      SAVL_STR_33_0 1.0
    X_33_MS95_0    PDEM_MS95_0 1.0
    X_33_MS95_0    Q_MS95_OCTANE_0 0.4418     Q_MS95_SULFUR_0 0.3955    
    X_33_MS95_0    Q_MS95_CETANE_0 0.9708     Q_MS95_DENSITY_0 0.7853    
    X_33_MS95_0    Q_MS95_RVP_0 0.2034     Q_MS95_FLASH_0 0.8898    
    X_33_HSD_BS6_0 COST      85.55      SAVL_STR_33_0 1.0
    X_33_HSD_BS6_0 PDEM_HSD_BS6_0 1.0
    X_33_HSD_BS6_0 Q_HSD_BS6_OCTANE_0 0.4418     Q_HSD_BS6_SULFUR_0 0.3955    
    X_33_HSD_BS6_0 Q_HSD_BS6_CETANE_0 0.9708     Q_HSD_BS6_DENSITY_0 0.7853    
    X_33_HSD_BS6_0 Q_HSD_BS6_RVP_0 0.2034     Q_HSD_BS6_FLASH_0 0.8898    
    X_33_JET_A1_0  COST      85.55      SAVL_STR_33_0 1.0
    X_33_JET_A1_0  PDEM_JET_A1_0 1.0
    X_33_JET_A1_0  Q_JET_A1_OCTANE_0 0.4418     Q_JET_A1_SULFUR_0 0.3955    
    X_33_JET_A1_0  Q_JET_A1_CETANE_0 0.9708     Q_JET_A1_DENSITY_0 0.7853    
    X_33_JET_A1_0  Q_JET_A1_RVP_0 0.2034     Q_JET_A1_FLASH_0 0.8898    
    X_33_MGO_0     COST      85.55      SAVL_STR_33_0 1.0
    X_33_MGO_0     PDEM_MGO_0 1.0
    X_33_MGO_0     Q_MGO_OCTANE_0 0.4418     Q_MGO_SULFUR_0 0.3955    
    X_33_MGO_0     Q_MGO_CETANE_0 0.9708     Q_MGO_DENSITY_0 0.7853    
    X_33_MGO_0     Q_MGO_RVP_0 0.2034     Q_MGO_FLASH_0 0.8898    
    X_33_FO380_0   COST      85.55      SAVL_STR_33_0 1.0
    X_33_FO380_0   PDEM_FO380_0 1.0
    X_33_FO380_0   Q_FO380_OCTANE_0 0.4418     Q_FO380_SULFUR_0 0.3955    
    X_33_FO380_0   Q_FO380_CETANE_0 0.9708     Q_FO380_DENSITY_0 0.7853    
    X_33_FO380_0   Q_FO380_RVP_0 0.2034     Q_FO380_FLASH_0 0.8898    
    X_34_MS91_0    COST      87.02      SAVL_STR_34_0 1.0
    X_34_MS91_0    PDEM_MS91_0 1.0
    X_34_MS91_0    Q_MS91_OCTANE_0 0.2201     Q_MS91_SULFUR_0 0.0642    
    X_34_MS91_0    Q_MS91_CETANE_0 1.0614     Q_MS91_DENSITY_0 0.8388    
    X_34_MS91_0    Q_MS91_RVP_0 0.0291     Q_MS91_FLASH_0 1.3419    
    X_34_MS95_0    COST      87.02      SAVL_STR_34_0 1.0
    X_34_MS95_0    PDEM_MS95_0 1.0
    X_34_MS95_0    Q_MS95_OCTANE_0 0.2201     Q_MS95_SULFUR_0 0.0642    
    X_34_MS95_0    Q_MS95_CETANE_0 1.0614     Q_MS95_DENSITY_0 0.8388    
    X_34_MS95_0    Q_MS95_RVP_0 0.0291     Q_MS95_FLASH_0 1.3419    
    X_34_HSD_BS6_0 COST      87.02      SAVL_STR_34_0 1.0
    X_34_HSD_BS6_0 PDEM_HSD_BS6_0 1.0
    X_34_HSD_BS6_0 Q_HSD_BS6_OCTANE_0 0.2201     Q_HSD_BS6_SULFUR_0 0.0642    
    X_34_HSD_BS6_0 Q_HSD_BS6_CETANE_0 1.0614     Q_HSD_BS6_DENSITY_0 0.8388    
    X_34_HSD_BS6_0 Q_HSD_BS6_RVP_0 0.0291     Q_HSD_BS6_FLASH_0 1.3419    
    X_34_JET_A1_0  COST      87.02      SAVL_STR_34_0 1.0
    X_34_JET_A1_0  PDEM_JET_A1_0 1.0
    X_34_JET_A1_0  Q_JET_A1_OCTANE_0 0.2201     Q_JET_A1_SULFUR_0 0.0642    
    X_34_JET_A1_0  Q_JET_A1_CETANE_0 1.0614     Q_JET_A1_DENSITY_0 0.8388    
    X_34_JET_A1_0  Q_JET_A1_RVP_0 0.0291     Q_JET_A1_FLASH_0 1.3419    
    X_34_MGO_0     COST      87.02      SAVL_STR_34_0 1.0
    X_34_MGO_0     PDEM_MGO_0 1.0
    X_34_MGO_0     Q_MGO_OCTANE_0 0.2201     Q_MGO_SULFUR_0 0.0642    
    X_34_MGO_0     Q_MGO_CETANE_0 1.0614     Q_MGO_DENSITY_0 0.8388    
    X_34_MGO_0     Q_MGO_RVP_0 0.0291     Q_MGO_FLASH_0 1.3419    
    X_34_FO380_0   COST      87.02      SAVL_STR_34_0 1.0
    X_34_FO380_0   PDEM_FO380_0 1.0
    X_34_FO380_0   Q_FO380_OCTANE_0 0.2201     Q_FO380_SULFUR_0 0.0642    
    X_34_FO380_0   Q_FO380_CETANE_0 1.0614     Q_FO380_DENSITY_0 0.8388    
    X_34_FO380_0   Q_FO380_RVP_0 0.0291     Q_FO380_FLASH_0 1.3419    
    X_35_MS91_0    COST      48.46      SAVL_STR_35_0 1.0
    X_35_MS91_0    PDEM_MS91_0 1.0
    X_35_MS91_0    Q_MS91_OCTANE_0 0.1451     Q_MS91_SULFUR_0 10.2797   
    X_35_MS91_0    Q_MS91_CETANE_0 0.6466     Q_MS91_DENSITY_0 0.9853    
    X_35_MS91_0    Q_MS91_RVP_0 0.0172     Q_MS91_FLASH_0 1.4923    
    X_35_MS95_0    COST      48.46      SAVL_STR_35_0 1.0
    X_35_MS95_0    PDEM_MS95_0 1.0
    X_35_MS95_0    Q_MS95_OCTANE_0 0.1451     Q_MS95_SULFUR_0 10.2797   
    X_35_MS95_0    Q_MS95_CETANE_0 0.6466     Q_MS95_DENSITY_0 0.9853    
    X_35_MS95_0    Q_MS95_RVP_0 0.0172     Q_MS95_FLASH_0 1.4923    
    X_35_HSD_BS6_0 COST      48.46      SAVL_STR_35_0 1.0
    X_35_HSD_BS6_0 PDEM_HSD_BS6_0 1.0
    X_35_HSD_BS6_0 Q_HSD_BS6_OCTANE_0 0.1451     Q_HSD_BS6_SULFUR_0 10.2797   
    X_35_HSD_BS6_0 Q_HSD_BS6_CETANE_0 0.6466     Q_HSD_BS6_DENSITY_0 0.9853    
    X_35_HSD_BS6_0 Q_HSD_BS6_RVP_0 0.0172     Q_HSD_BS6_FLASH_0 1.4923    
    X_35_JET_A1_0  COST      48.46      SAVL_STR_35_0 1.0
    X_35_JET_A1_0  PDEM_JET_A1_0 1.0
    X_35_JET_A1_0  Q_JET_A1_OCTANE_0 0.1451     Q_JET_A1_SULFUR_0 10.2797   
    X_35_JET_A1_0  Q_JET_A1_CETANE_0 0.6466     Q_JET_A1_DENSITY_0 0.9853    
    X_35_JET_A1_0  Q_JET_A1_RVP_0 0.0172     Q_JET_A1_FLASH_0 1.4923    
    X_35_MGO_0     COST      48.46      SAVL_STR_35_0 1.0
    X_35_MGO_0     PDEM_MGO_0 1.0
    X_35_MGO_0     Q_MGO_OCTANE_0 0.1451     Q_MGO_SULFUR_0 10.2797   
    X_35_MGO_0     Q_MGO_CETANE_0 0.6466     Q_MGO_DENSITY_0 0.9853    
    X_35_MGO_0     Q_MGO_RVP_0 0.0172     Q_MGO_FLASH_0 1.4923    
    X_35_FO380_0   COST      48.46      SAVL_STR_35_0 1.0
    X_35_FO380_0   PDEM_FO380_0 1.0
    X_35_FO380_0   Q_FO380_OCTANE_0 0.1451     Q_FO380_SULFUR_0 10.2797   
    X_35_FO380_0   Q_FO380_CETANE_0 0.6466     Q_FO380_DENSITY_0 0.9853    
    X_35_FO380_0   Q_FO380_RVP_0 0.0172     Q_FO380_FLASH_0 1.4923    
    X_36_MS91_0    COST      74.15      SAVL_STR_36_0 1.0
    X_36_MS91_0    PDEM_MS91_0 1.0
    X_36_MS91_0    Q_MS91_OCTANE_0 0.8805     Q_MS91_SULFUR_0 0.1202    
    X_36_MS91_0    Q_MS91_CETANE_0 0.4274     Q_MS91_DENSITY_0 0.7318    
    X_36_MS91_0    Q_MS91_RVP_0 1.5447     Q_MS91_FLASH_0 -0.5690   
    X_36_MS95_0    COST      74.15      SAVL_STR_36_0 1.0
    X_36_MS95_0    PDEM_MS95_0 1.0
    X_36_MS95_0    Q_MS95_OCTANE_0 0.8805     Q_MS95_SULFUR_0 0.1202    
    X_36_MS95_0    Q_MS95_CETANE_0 0.4274     Q_MS95_DENSITY_0 0.7318    
    X_36_MS95_0    Q_MS95_RVP_0 1.5447     Q_MS95_FLASH_0 -0.5690   
    X_36_HSD_BS6_0 COST      74.15      SAVL_STR_36_0 1.0
    X_36_HSD_BS6_0 PDEM_HSD_BS6_0 1.0
    X_36_HSD_BS6_0 Q_HSD_BS6_OCTANE_0 0.8805     Q_HSD_BS6_SULFUR_0 0.1202    
    X_36_HSD_BS6_0 Q_HSD_BS6_CETANE_0 0.4274     Q_HSD_BS6_DENSITY_0 0.7318    
    X_36_HSD_BS6_0 Q_HSD_BS6_RVP_0 1.5447     Q_HSD_BS6_FLASH_0 -0.5690   
    X_36_JET_A1_0  COST      74.15      SAVL_STR_36_0 1.0
    X_36_JET_A1_0  PDEM_JET_A1_0 1.0
    X_36_JET_A1_0  Q_JET_A1_OCTANE_0 0.8805     Q_JET_A1_SULFUR_0 0.1202    
    X_36_JET_A1_0  Q_JET_A1_CETANE_0 0.4274     Q_JET_A1_DENSITY_0 0.7318    
    X_36_JET_A1_0  Q_JET_A1_RVP_0 1.5447     Q_JET_A1_FLASH_0 -0.5690   
    X_36_MGO_0     COST      74.15      SAVL_STR_36_0 1.0
    X_36_MGO_0     PDEM_MGO_0 1.0
    X_36_MGO_0     Q_MGO_OCTANE_0 0.8805     Q_MGO_SULFUR_0 0.1202    
    X_36_MGO_0     Q_MGO_CETANE_0 0.4274     Q_MGO_DENSITY_0 0.7318    
    X_36_MGO_0     Q_MGO_RVP_0 1.5447     Q_MGO_FLASH_0 -0.5690   
    X_36_FO380_0   COST      74.15      SAVL_STR_36_0 1.0
    X_36_FO380_0   PDEM_FO380_0 1.0
    X_36_FO380_0   Q_FO380_OCTANE_0 0.8805     Q_FO380_SULFUR_0 0.1202    
    X_36_FO380_0   Q_FO380_CETANE_0 0.4274     Q_FO380_DENSITY_0 0.7318    
    X_36_FO380_0   Q_FO380_RVP_0 1.5447     Q_FO380_FLASH_0 -0.5690   
    X_37_MS91_0    COST      75.15      SAVL_STR_37_0 1.0
    X_37_MS91_0    PDEM_MS91_0 1.0
    X_37_MS91_0    Q_MS91_OCTANE_0 0.3613     Q_MS91_SULFUR_0 0.3591    
    X_37_MS91_0    Q_MS91_CETANE_0 1.0208     Q_MS91_DENSITY_0 0.8041    
    X_37_MS91_0    Q_MS91_RVP_0 0.2069     Q_MS91_FLASH_0 0.9748    
    X_37_MS95_0    COST      75.15      SAVL_STR_37_0 1.0
    X_37_MS95_0    PDEM_MS95_0 1.0
    X_37_MS95_0    Q_MS95_OCTANE_0 0.3613     Q_MS95_SULFUR_0 0.3591    
    X_37_MS95_0    Q_MS95_CETANE_0 1.0208     Q_MS95_DENSITY_0 0.8041    
    X_37_MS95_0    Q_MS95_RVP_0 0.2069     Q_MS95_FLASH_0 0.9748    
    X_37_HSD_BS6_0 COST      75.15      SAVL_STR_37_0 1.0
    X_37_HSD_BS6_0 PDEM_HSD_BS6_0 1.0
    X_37_HSD_BS6_0 Q_HSD_BS6_OCTANE_0 0.3613     Q_HSD_BS6_SULFUR_0 0.3591    
    X_37_HSD_BS6_0 Q_HSD_BS6_CETANE_0 1.0208     Q_HSD_BS6_DENSITY_0 0.8041    
    X_37_HSD_BS6_0 Q_HSD_BS6_RVP_0 0.2069     Q_HSD_BS6_FLASH_0 0.9748    
    X_37_JET_A1_0  COST      75.15      SAVL_STR_37_0 1.0
    X_37_JET_A1_0  PDEM_JET_A1_0 1.0
    X_37_JET_A1_0  Q_JET_A1_OCTANE_0 0.3613     Q_JET_A1_SULFUR_0 0.3591    
    X_37_JET_A1_0  Q_JET_A1_CETANE_0 1.0208     Q_JET_A1_DENSITY_0 0.8041    
    X_37_JET_A1_0  Q_JET_A1_RVP_0 0.2069     Q_JET_A1_FLASH_0 0.9748    
    X_37_MGO_0     COST      75.15      SAVL_STR_37_0 1.0
    X_37_MGO_0     PDEM_MGO_0 1.0
    X_37_MGO_0     Q_MGO_OCTANE_0 0.3613     Q_MGO_SULFUR_0 0.3591    
    X_37_MGO_0     Q_MGO_CETANE_0 1.0208     Q_MGO_DENSITY_0 0.8041    
    X_37_MGO_0     Q_MGO_RVP_0 0.2069     Q_MGO_FLASH_0 0.9748    
    X_37_FO380_0   COST      75.15      SAVL_STR_37_0 1.0
    X_37_FO380_0   PDEM_FO380_0 1.0
    X_37_FO380_0   Q_FO380_OCTANE_0 0.3613     Q_FO380_SULFUR_0 0.3591    
    X_37_FO380_0   Q_FO380_CETANE_0 1.0208     Q_FO380_DENSITY_0 0.8041    
    X_37_FO380_0   Q_FO380_RVP_0 0.2069     Q_FO380_FLASH_0 0.9748    
    X_38_MS91_0    COST      74.04      SAVL_STR_38_0 1.0
    X_38_MS91_0    PDEM_MS91_0 1.0
    X_38_MS91_0    Q_MS91_OCTANE_0 0.2462     Q_MS91_SULFUR_0 0.2288    
    X_38_MS91_0    Q_MS91_CETANE_0 1.1992     Q_MS91_DENSITY_0 0.8465    
    X_38_MS91_0    Q_MS91_RVP_0 0.0729     Q_MS91_FLASH_0 1.1840    
    X_38_MS95_0    COST      74.04      SAVL_STR_38_0 1.0
    X_38_MS95_0    PDEM_MS95_0 1.0
    X_38_MS95_0    Q_MS95_OCTANE_0 0.2462     Q_MS95_SULFUR_0 0.2288    
    X_38_MS95_0    Q_MS95_CETANE_0 1.1992     Q_MS95_DENSITY_0 0.8465    
    X_38_MS95_0    Q_MS95_RVP_0 0.0729     Q_MS95_FLASH_0 1.1840    
    X_38_HSD_BS6_0 COST      74.04      SAVL_STR_38_0 1.0
    X_38_HSD_BS6_0 PDEM_HSD_BS6_0 1.0
    X_38_HSD_BS6_0 Q_HSD_BS6_OCTANE_0 0.2462     Q_HSD_BS6_SULFUR_0 0.2288    
    X_38_HSD_BS6_0 Q_HSD_BS6_CETANE_0 1.1992     Q_HSD_BS6_DENSITY_0 0.8465    
    X_38_HSD_BS6_0 Q_HSD_BS6_RVP_0 0.0729     Q_HSD_BS6_FLASH_0 1.1840    
    X_38_JET_A1_0  COST      74.04      SAVL_STR_38_0 1.0
    X_38_JET_A1_0  PDEM_JET_A1_0 1.0
    X_38_JET_A1_0  Q_JET_A1_OCTANE_0 0.2462     Q_JET_A1_SULFUR_0 0.2288    
    X_38_JET_A1_0  Q_JET_A1_CETANE_0 1.1992     Q_JET_A1_DENSITY_0 0.8465    
    X_38_JET_A1_0  Q_JET_A1_RVP_0 0.0729     Q_JET_A1_FLASH_0 1.1840    
    X_38_MGO_0     COST      74.04      SAVL_STR_38_0 1.0
    X_38_MGO_0     PDEM_MGO_0 1.0
    X_38_MGO_0     Q_MGO_OCTANE_0 0.2462     Q_MGO_SULFUR_0 0.2288    
    X_38_MGO_0     Q_MGO_CETANE_0 1.1992     Q_MGO_DENSITY_0 0.8465    
    X_38_MGO_0     Q_MGO_RVP_0 0.0729     Q_MGO_FLASH_0 1.1840    
    X_38_FO380_0   COST      74.04      SAVL_STR_38_0 1.0
    X_38_FO380_0   PDEM_FO380_0 1.0
    X_38_FO380_0   Q_FO380_OCTANE_0 0.2462     Q_FO380_SULFUR_0 0.2288    
    X_38_FO380_0   Q_FO380_CETANE_0 1.1992     Q_FO380_DENSITY_0 0.8465    
    X_38_FO380_0   Q_FO380_RVP_0 0.0729     Q_FO380_FLASH_0 1.1840    
    X_39_MS91_0    COST      46.75      SAVL_STR_39_0 1.0
    X_39_MS91_0    PDEM_MS91_0 1.0
    X_39_MS91_0    Q_MS91_OCTANE_0 0.1670     Q_MS91_SULFUR_0 22.6827   
    X_39_MS91_0    Q_MS91_CETANE_0 0.6219     Q_MS91_DENSITY_0 0.9710    
    X_39_MS91_0    Q_MS91_RVP_0 0.0048     Q_MS91_FLASH_0 2.3299    
    X_39_MS95_0    COST      46.75      SAVL_STR_39_0 1.0
    X_39_MS95_0    PDEM_MS95_0 1.0
    X_39_MS95_0    Q_MS95_OCTANE_0 0.1670     Q_MS95_SULFUR_0 22.6827   
    X_39_MS95_0    Q_MS95_CETANE_0 0.6219     Q_MS95_DENSITY_0 0.9710    
    X_39_MS95_0    Q_MS95_RVP_0 0.0048     Q_MS95_FLASH_0 2.3299    
    X_39_HSD_BS6_0 COST      46.75      SAVL_STR_39_0 1.0
    X_39_HSD_BS6_0 PDEM_HSD_BS6_0 1.0
    X_39_HSD_BS6_0 Q_HSD_BS6_OCTANE_0 0.1670     Q_HSD_BS6_SULFUR_0 22.6827   
    X_39_HSD_BS6_0 Q_HSD_BS6_CETANE_0 0.6219     Q_HSD_BS6_DENSITY_0 0.9710    
    X_39_HSD_BS6_0 Q_HSD_BS6_RVP_0 0.0048     Q_HSD_BS6_FLASH_0 2.3299    
    X_39_JET_A1_0  COST      46.75      SAVL_STR_39_0 1.0
    X_39_JET_A1_0  PDEM_JET_A1_0 1.0
    X_39_JET_A1_0  Q_JET_A1_OCTANE_0 0.1670     Q_JET_A1_SULFUR_0 22.6827   
    X_39_JET_A1_0  Q_JET_A1_CETANE_0 0.6219     Q_JET_A1_DENSITY_0 0.9710    
    X_39_JET_A1_0  Q_JET_A1_RVP_0 0.0048     Q_JET_A1_FLASH_0 2.3299    
    X_39_MGO_0     COST      46.75      SAVL_STR_39_0 1.0
    X_39_MGO_0     PDEM_MGO_0 1.0
    X_39_MGO_0     Q_MGO_OCTANE_0 0.1670     Q_MGO_SULFUR_0 22.6827   
    X_39_MGO_0     Q_MGO_CETANE_0 0.6219     Q_MGO_DENSITY_0 0.9710    
    X_39_MGO_0     Q_MGO_RVP_0 0.0048     Q_MGO_FLASH_0 2.3299    
    X_39_FO380_0   COST      46.75      SAVL_STR_39_0 1.0
    X_39_FO380_0   PDEM_FO380_0 1.0
    X_39_FO380_0   Q_FO380_OCTANE_0 0.1670     Q_FO380_SULFUR_0 22.6827   
    X_39_FO380_0   Q_FO380_CETANE_0 0.6219     Q_FO380_DENSITY_0 0.9710    
    X_39_FO380_0   Q_FO380_RVP_0 0.0048     Q_FO380_FLASH_0 2.3299    
    X_40_MS91_0    COST      84.64      SAVL_STR_40_0 1.0
    X_40_MS91_0    PDEM_MS91_0 1.0
    X_40_MS91_0    Q_MS91_OCTANE_0 0.9935     Q_MS91_SULFUR_0 0.1346    
    X_40_MS91_0    Q_MS91_CETANE_0 0.3050     Q_MS91_DENSITY_0 0.7531    
    X_40_MS91_0    Q_MS91_RVP_0 1.2993     Q_MS91_FLASH_0 -0.3415   
    X_40_MS95_0    COST      84.64      SAVL_STR_40_0 1.0
    X_40_MS95_0    PDEM_MS95_0 1.0
    X_40_MS95_0    Q_MS95_OCTANE_0 0.9935     Q_MS95_SULFUR_0 0.1346    
    X_40_MS95_0    Q_MS95_CETANE_0 0.3050     Q_MS95_DENSITY_0 0.7531    
    X_40_MS95_0    Q_MS95_RVP_0 1.2993     Q_MS95_FLASH_0 -0.3415   
    X_40_HSD_BS6_0 COST      84.64      SAVL_STR_40_0 1.0
    X_40_HSD_BS6_0 PDEM_HSD_BS6_0 1.0
    X_40_HSD_BS6_0 Q_HSD_BS6_OCTANE_0 0.9935     Q_HSD_BS6_SULFUR_0 0.1346    
    X_40_HSD_BS6_0 Q_HSD_BS6_CETANE_0 0.3050     Q_HSD_BS6_DENSITY_0 0.7531    
    X_40_HSD_BS6_0 Q_HSD_BS6_RVP_0 1.2993     Q_HSD_BS6_FLASH_0 -0.3415   
    X_40_JET_A1_0  COST      84.64      SAVL_STR_40_0 1.0
    X_40_JET_A1_0  PDEM_JET_A1_0 1.0
    X_40_JET_A1_0  Q_JET_A1_OCTANE_0 0.9935     Q_JET_A1_SULFUR_0 0.1346    
    X_40_JET_A1_0  Q_JET_A1_CETANE_0 0.3050     Q_JET_A1_DENSITY_0 0.7531    
    X_40_JET_A1_0  Q_JET_A1_RVP_0 1.2993     Q_JET_A1_FLASH_0 -0.3415   
    X_40_MGO_0     COST      84.64      SAVL_STR_40_0 1.0
    X_40_MGO_0     PDEM_MGO_0 1.0
    X_40_MGO_0     Q_MGO_OCTANE_0 0.9935     Q_MGO_SULFUR_0 0.1346    
    X_40_MGO_0     Q_MGO_CETANE_0 0.3050     Q_MGO_DENSITY_0 0.7531    
    X_40_MGO_0     Q_MGO_RVP_0 1.2993     Q_MGO_FLASH_0 -0.3415   
    X_40_FO380_0   COST      84.64      SAVL_STR_40_0 1.0
    X_40_FO380_0   PDEM_FO380_0 1.0
    X_40_FO380_0   Q_FO380_OCTANE_0 0.9935     Q_FO380_SULFUR_0 0.1346    
    X_40_FO380_0   Q_FO380_CETANE_0 0.3050     Q_FO380_DENSITY_0 0.7531    
    X_40_FO380_0   Q_FO380_RVP_0 1.2993     Q_FO380_FLASH_0 -0.3415   
    X_41_MS91_0    COST      87.96      SAVL_STR_41_0 1.0
    X_41_MS91_0    PDEM_MS91_0 1.0
    X_41_MS91_0    Q_MS91_OCTANE_0 0.4716     Q_MS91_SULFUR_0 0.1434    
    X_41_MS91_0    Q_MS91_CETANE_0 0.9975     Q_MS91_DENSITY_0 0.7888    
    X_41_MS91_0    Q_MS91_RVP_0 0.2144     Q_MS91_FLASH_0 1.0576    
    X_41_MS95_0    COST      87.96      SAVL_STR_41_0 1.0
    X_41_MS95_0    PDEM_MS95_0 1.0
    X_41_MS95_0    Q_MS95_OCTANE_0 0.4716     Q_MS95_SULFUR_0 0.1434    
    X_41_MS95_0    Q_MS95_CETANE_0 0.9975     Q_MS95_DENSITY_0 0.7888    
    X_41_MS95_0    Q_MS95_RVP_0 0.2144     Q_MS95_FLASH_0 1.0576    
    X_41_HSD_BS6_0 COST      87.96      SAVL_STR_41_0 1.0
    X_41_HSD_BS6_0 PDEM_HSD_BS6_0 1.0
    X_41_HSD_BS6_0 Q_HSD_BS6_OCTANE_0 0.4716     Q_HSD_BS6_SULFUR_0 0.1434    
    X_41_HSD_BS6_0 Q_HSD_BS6_CETANE_0 0.9975     Q_HSD_BS6_DENSITY_0 0.7888    
    X_41_HSD_BS6_0 Q_HSD_BS6_RVP_0 0.2144     Q_HSD_BS6_FLASH_0 1.0576    
    X_41_JET_A1_0  COST      87.96      SAVL_STR_41_0 1.0
    X_41_JET_A1_0  PDEM_JET_A1_0 1.0
    X_41_JET_A1_0  Q_JET_A1_OCTANE_0 0.4716     Q_JET_A1_SULFUR_0 0.1434    
    X_41_JET_A1_0  Q_JET_A1_CETANE_0 0.9975     Q_JET_A1_DENSITY_0 0.7888    
    X_41_JET_A1_0  Q_JET_A1_RVP_0 0.2144     Q_JET_A1_FLASH_0 1.0576    
    X_41_MGO_0     COST      87.96      SAVL_STR_41_0 1.0
    X_41_MGO_0     PDEM_MGO_0 1.0
    X_41_MGO_0     Q_MGO_OCTANE_0 0.4716     Q_MGO_SULFUR_0 0.1434    
    X_41_MGO_0     Q_MGO_CETANE_0 0.9975     Q_MGO_DENSITY_0 0.7888    
    X_41_MGO_0     Q_MGO_RVP_0 0.2144     Q_MGO_FLASH_0 1.0576    
    X_41_FO380_0   COST      87.96      SAVL_STR_41_0 1.0
    X_41_FO380_0   PDEM_FO380_0 1.0
    X_41_FO380_0   Q_FO380_OCTANE_0 0.4716     Q_FO380_SULFUR_0 0.1434    
    X_41_FO380_0   Q_FO380_CETANE_0 0.9975     Q_FO380_DENSITY_0 0.7888    
    X_41_FO380_0   Q_FO380_RVP_0 0.2144     Q_FO380_FLASH_0 1.0576    
    X_42_MS91_0    COST      85.07      SAVL_STR_42_0 1.0
    X_42_MS91_0    PDEM_MS91_0 1.0
    X_42_MS91_0    Q_MS91_OCTANE_0 0.2690     Q_MS91_SULFUR_0 0.1041    
    X_42_MS91_0    Q_MS91_CETANE_0 1.1991     Q_MS91_DENSITY_0 0.8307    
    X_42_MS91_0    Q_MS91_RVP_0 0.0117     Q_MS91_FLASH_0 1.1773    
    X_42_MS95_0    COST      85.07      SAVL_STR_42_0 1.0
    X_42_MS95_0    PDEM_MS95_0 1.0
    X_42_MS95_0    Q_MS95_OCTANE_0 0.2690     Q_MS95_SULFUR_0 0.1041    
    X_42_MS95_0    Q_MS95_CETANE_0 1.1991     Q_MS95_DENSITY_0 0.8307    
    X_42_MS95_0    Q_MS95_RVP_0 0.0117     Q_MS95_FLASH_0 1.1773    
    X_42_HSD_BS6_0 COST      85.07      SAVL_STR_42_0 1.0
    X_42_HSD_BS6_0 PDEM_HSD_BS6_0 1.0
    X_42_HSD_BS6_0 Q_HSD_BS6_OCTANE_0 0.2690     Q_HSD_BS6_SULFUR_0 0.1041    
    X_42_HSD_BS6_0 Q_HSD_BS6_CETANE_0 1.1991     Q_HSD_BS6_DENSITY_0 0.8307    
    X_42_HSD_BS6_0 Q_HSD_BS6_RVP_0 0.0117     Q_HSD_BS6_FLASH_0 1.1773    
    X_42_JET_A1_0  COST      85.07      SAVL_STR_42_0 1.0
    X_42_JET_A1_0  PDEM_JET_A1_0 1.0
    X_42_JET_A1_0  Q_JET_A1_OCTANE_0 0.2690     Q_JET_A1_SULFUR_0 0.1041    
    X_42_JET_A1_0  Q_JET_A1_CETANE_0 1.1991     Q_JET_A1_DENSITY_0 0.8307    
    X_42_JET_A1_0  Q_JET_A1_RVP_0 0.0117     Q_JET_A1_FLASH_0 1.1773    
    X_42_MGO_0     COST      85.07      SAVL_STR_42_0 1.0
    X_42_MGO_0     PDEM_MGO_0 1.0
    X_42_MGO_0     Q_MGO_OCTANE_0 0.2690     Q_MGO_SULFUR_0 0.1041    
    X_42_MGO_0     Q_MGO_CETANE_0 1.1991     Q_MGO_DENSITY_0 0.8307    
    X_42_MGO_0     Q_MGO_RVP_0 0.0117     Q_MGO_FLASH_0 1.1773    
    X_42_FO380_0   COST      85.07      SAVL_STR_42_0 1.0
    X_42_FO380_0   PDEM_FO380_0 1.0
    X_42_FO380_0   Q_FO380_OCTANE_0 0.2690     Q_FO380_SULFUR_0 0.1041    
    X_42_FO380_0   Q_FO380_CETANE_0 1.1991     Q_FO380_DENSITY_0 0.8307    
    X_42_FO380_0   Q_FO380_RVP_0 0.0117     Q_FO380_FLASH_0 1.1773    
    X_43_MS91_0    COST      59.69      SAVL_STR_43_0 1.0
    X_43_MS91_0    PDEM_MS91_0 1.0
    X_43_MS91_0    Q_MS91_OCTANE_0 0.1950     Q_MS91_SULFUR_0 10.5825   
    X_43_MS91_0    Q_MS91_CETANE_0 0.6924     Q_MS91_DENSITY_0 0.9600    
    X_43_MS91_0    Q_MS91_RVP_0 0.0197     Q_MS91_FLASH_0 1.9362    
    X_43_MS95_0    COST      59.69      SAVL_STR_43_0 1.0
    X_43_MS95_0    PDEM_MS95_0 1.0
    X_43_MS95_0    Q_MS95_OCTANE_0 0.1950     Q_MS95_SULFUR_0 10.5825   
    X_43_MS95_0    Q_MS95_CETANE_0 0.6924     Q_MS95_DENSITY_0 0.9600    
    X_43_MS95_0    Q_MS95_RVP_0 0.0197     Q_MS95_FLASH_0 1.9362    
    X_43_HSD_BS6_0 COST      59.69      SAVL_STR_43_0 1.0
    X_43_HSD_BS6_0 PDEM_HSD_BS6_0 1.0
    X_43_HSD_BS6_0 Q_HSD_BS6_OCTANE_0 0.1950     Q_HSD_BS6_SULFUR_0 10.5825   
    X_43_HSD_BS6_0 Q_HSD_BS6_CETANE_0 0.6924     Q_HSD_BS6_DENSITY_0 0.9600    
    X_43_HSD_BS6_0 Q_HSD_BS6_RVP_0 0.0197     Q_HSD_BS6_FLASH_0 1.9362    
    X_43_JET_A1_0  COST      59.69      SAVL_STR_43_0 1.0
    X_43_JET_A1_0  PDEM_JET_A1_0 1.0
    X_43_JET_A1_0  Q_JET_A1_OCTANE_0 0.1950     Q_JET_A1_SULFUR_0 10.5825   
    X_43_JET_A1_0  Q_JET_A1_CETANE_0 0.6924     Q_JET_A1_DENSITY_0 0.9600    
    X_43_JET_A1_0  Q_JET_A1_RVP_0 0.0197     Q_JET_A1_FLASH_0 1.9362    
    X_43_MGO_0     COST      59.69      SAVL_STR_43_0 1.0
    X_43_MGO_0     PDEM_MGO_0 1.0
    X_43_MGO_0     Q_MGO_OCTANE_0 0.1950     Q_MGO_SULFUR_0 10.5825   
    X_43_MGO_0     Q_MGO_CETANE_0 0.6924     Q_MGO_DENSITY_0 0.9600    
    X_43_MGO_0     Q_MGO_RVP_0 0.0197     Q_MGO_FLASH_0 1.9362    
    X_43_FO380_0   COST      59.69      SAVL_STR_43_0 1.0
    X_43_FO380_0   PDEM_FO380_0 1.0
    X_43_FO380_0   Q_FO380_OCTANE_0 0.1950     Q_FO380_SULFUR_0 10.5825   
    X_43_FO380_0   Q_FO380_CETANE_0 0.6924     Q_FO380_DENSITY_0 0.9600    
    X_43_FO380_0   Q_FO380_RVP_0 0.0197     Q_FO380_FLASH_0 1.9362    
    X_44_MS91_0    COST      71.73      SAVL_STR_44_0 1.0
    X_44_MS91_0    PDEM_MS91_0 1.0
    X_44_MS91_0    Q_MS91_OCTANE_0 1.0159     Q_MS91_SULFUR_0 0.0432    
    X_44_MS91_0    Q_MS91_CETANE_0 0.4925     Q_MS91_DENSITY_0 0.7319    
    X_44_MS91_0    Q_MS91_RVP_0 1.1650     Q_MS91_FLASH_0 -0.6393   
    X_44_MS95_0    COST      71.73      SAVL_STR_44_0 1.0
    X_44_MS95_0    PDEM_MS95_0 1.0
    X_44_MS95_0    Q_MS95_OCTANE_0 1.0159     Q_MS95_SULFUR_0 0.0432    
    X_44_MS95_0    Q_MS95_CETANE_0 0.4925     Q_MS95_DENSITY_0 0.7319    
    X_44_MS95_0    Q_MS95_RVP_0 1.1650     Q_MS95_FLASH_0 -0.6393   
    X_44_HSD_BS6_0 COST      71.73      SAVL_STR_44_0 1.0
    X_44_HSD_BS6_0 PDEM_HSD_BS6_0 1.0
    X_44_HSD_BS6_0 Q_HSD_BS6_OCTANE_0 1.0159     Q_HSD_BS6_SULFUR_0 0.0432    
    X_44_HSD_BS6_0 Q_HSD_BS6_CETANE_0 0.4925     Q_HSD_BS6_DENSITY_0 0.7319    
    X_44_HSD_BS6_0 Q_HSD_BS6_RVP_0 1.1650     Q_HSD_BS6_FLASH_0 -0.6393   
    X_44_JET_A1_0  COST      71.73      SAVL_STR_44_0 1.0
    X_44_JET_A1_0  PDEM_JET_A1_0 1.0
    X_44_JET_A1_0  Q_JET_A1_OCTANE_0 1.0159     Q_JET_A1_SULFUR_0 0.0432    
    X_44_JET_A1_0  Q_JET_A1_CETANE_0 0.4925     Q_JET_A1_DENSITY_0 0.7319    
    X_44_JET_A1_0  Q_JET_A1_RVP_0 1.1650     Q_JET_A1_FLASH_0 -0.6393   
    X_44_MGO_0     COST      71.73      SAVL_STR_44_0 1.0
    X_44_MGO_0     PDEM_MGO_0 1.0
    X_44_MGO_0     Q_MGO_OCTANE_0 1.0159     Q_MGO_SULFUR_0 0.0432    
    X_44_MGO_0     Q_MGO_CETANE_0 0.4925     Q_MGO_DENSITY_0 0.7319    
    X_44_MGO_0     Q_MGO_RVP_0 1.1650     Q_MGO_FLASH_0 -0.6393   
    X_44_FO380_0   COST      71.73      SAVL_STR_44_0 1.0
    X_44_FO380_0   PDEM_FO380_0 1.0
    X_44_FO380_0   Q_FO380_OCTANE_0 1.0159     Q_FO380_SULFUR_0 0.0432    
    X_44_FO380_0   Q_FO380_CETANE_0 0.4925     Q_FO380_DENSITY_0 0.7319    
    X_44_FO380_0   Q_FO380_RVP_0 1.1650     Q_FO380_FLASH_0 -0.6393   
    X_45_MS91_0    COST      79.71      SAVL_STR_45_0 1.0
    X_45_MS91_0    PDEM_MS91_0 1.0
    X_45_MS91_0    Q_MS91_OCTANE_0 0.4409     Q_MS91_SULFUR_0 0.2290    
    X_45_MS91_0    Q_MS91_CETANE_0 0.9170     Q_MS91_DENSITY_0 0.8052    
    X_45_MS91_0    Q_MS91_RVP_0 0.0909     Q_MS91_FLASH_0 1.0126    
    X_45_MS95_0    COST      79.71      SAVL_STR_45_0 1.0
    X_45_MS95_0    PDEM_MS95_0 1.0
    X_45_MS95_0    Q_MS95_OCTANE_0 0.4409     Q_MS95_SULFUR_0 0.2290    
    X_45_MS95_0    Q_MS95_CETANE_0 0.9170     Q_MS95_DENSITY_0 0.8052    
    X_45_MS95_0    Q_MS95_RVP_0 0.0909     Q_MS95_FLASH_0 1.0126    
    X_45_HSD_BS6_0 COST      79.71      SAVL_STR_45_0 1.0
    X_45_HSD_BS6_0 PDEM_HSD_BS6_0 1.0
    X_45_HSD_BS6_0 Q_HSD_BS6_OCTANE_0 0.4409     Q_HSD_BS6_SULFUR_0 0.2290    
    X_45_HSD_BS6_0 Q_HSD_BS6_CETANE_0 0.9170     Q_HSD_BS6_DENSITY_0 0.8052    
    X_45_HSD_BS6_0 Q_HSD_BS6_RVP_0 0.0909     Q_HSD_BS6_FLASH_0 1.0126    
    X_45_JET_A1_0  COST      79.71      SAVL_STR_45_0 1.0
    X_45_JET_A1_0  PDEM_JET_A1_0 1.0
    X_45_JET_A1_0  Q_JET_A1_OCTANE_0 0.4409     Q_JET_A1_SULFUR_0 0.2290    
    X_45_JET_A1_0  Q_JET_A1_CETANE_0 0.9170     Q_JET_A1_DENSITY_0 0.8052    
    X_45_JET_A1_0  Q_JET_A1_RVP_0 0.0909     Q_JET_A1_FLASH_0 1.0126    
    X_45_MGO_0     COST      79.71      SAVL_STR_45_0 1.0
    X_45_MGO_0     PDEM_MGO_0 1.0
    X_45_MGO_0     Q_MGO_OCTANE_0 0.4409     Q_MGO_SULFUR_0 0.2290    
    X_45_MGO_0     Q_MGO_CETANE_0 0.9170     Q_MGO_DENSITY_0 0.8052    
    X_45_MGO_0     Q_MGO_RVP_0 0.0909     Q_MGO_FLASH_0 1.0126    
    X_45_FO380_0   COST      79.71      SAVL_STR_45_0 1.0
    X_45_FO380_0   PDEM_FO380_0 1.0
    X_45_FO380_0   Q_FO380_OCTANE_0 0.4409     Q_FO380_SULFUR_0 0.2290    
    X_45_FO380_0   Q_FO380_CETANE_0 0.9170     Q_FO380_DENSITY_0 0.8052    
    X_45_FO380_0   Q_FO380_RVP_0 0.0909     Q_FO380_FLASH_0 1.0126    
    X_46_MS91_0    COST      86.81      SAVL_STR_46_0 1.0
    X_46_MS91_0    PDEM_MS91_0 1.0
    X_46_MS91_0    Q_MS91_OCTANE_0 0.2808     Q_MS91_SULFUR_0 0.1911    
    X_46_MS91_0    Q_MS91_CETANE_0 1.1884     Q_MS91_DENSITY_0 0.8418    
    X_46_MS91_0    Q_MS91_RVP_0 0.0355     Q_MS91_FLASH_0 1.1280    
    X_46_MS95_0    COST      86.81      SAVL_STR_46_0 1.0
    X_46_MS95_0    PDEM_MS95_0 1.0
    X_46_MS95_0    Q_MS95_OCTANE_0 0.2808     Q_MS95_SULFUR_0 0.1911    
    X_46_MS95_0    Q_MS95_CETANE_0 1.1884     Q_MS95_DENSITY_0 0.8418    
    X_46_MS95_0    Q_MS95_RVP_0 0.0355     Q_MS95_FLASH_0 1.1280    
    X_46_HSD_BS6_0 COST      86.81      SAVL_STR_46_0 1.0
    X_46_HSD_BS6_0 PDEM_HSD_BS6_0 1.0
    X_46_HSD_BS6_0 Q_HSD_BS6_OCTANE_0 0.2808     Q_HSD_BS6_SULFUR_0 0.1911    
    X_46_HSD_BS6_0 Q_HSD_BS6_CETANE_0 1.1884     Q_HSD_BS6_DENSITY_0 0.8418    
    X_46_HSD_BS6_0 Q_HSD_BS6_RVP_0 0.0355     Q_HSD_BS6_FLASH_0 1.1280    
    X_46_JET_A1_0  COST      86.81      SAVL_STR_46_0 1.0
    X_46_JET_A1_0  PDEM_JET_A1_0 1.0
    X_46_JET_A1_0  Q_JET_A1_OCTANE_0 0.2808     Q_JET_A1_SULFUR_0 0.1911    
    X_46_JET_A1_0  Q_JET_A1_CETANE_0 1.1884     Q_JET_A1_DENSITY_0 0.8418    
    X_46_JET_A1_0  Q_JET_A1_RVP_0 0.0355     Q_JET_A1_FLASH_0 1.1280    
    X_46_MGO_0     COST      86.81      SAVL_STR_46_0 1.0
    X_46_MGO_0     PDEM_MGO_0 1.0
    X_46_MGO_0     Q_MGO_OCTANE_0 0.2808     Q_MGO_SULFUR_0 0.1911    
    X_46_MGO_0     Q_MGO_CETANE_0 1.1884     Q_MGO_DENSITY_0 0.8418    
    X_46_MGO_0     Q_MGO_RVP_0 0.0355     Q_MGO_FLASH_0 1.1280    
    X_46_FO380_0   COST      86.81      SAVL_STR_46_0 1.0
    X_46_FO380_0   PDEM_FO380_0 1.0
    X_46_FO380_0   Q_FO380_OCTANE_0 0.2808     Q_FO380_SULFUR_0 0.1911    
    X_46_FO380_0   Q_FO380_CETANE_0 1.1884     Q_FO380_DENSITY_0 0.8418    
    X_46_FO380_0   Q_FO380_RVP_0 0.0355     Q_FO380_FLASH_0 1.1280    
    X_47_MS91_0    COST      50.61      SAVL_STR_47_0 1.0
    X_47_MS91_0    PDEM_MS91_0 1.0
    X_47_MS91_0    Q_MS91_OCTANE_0 0.0971     Q_MS91_SULFUR_0 21.9603   
    X_47_MS91_0    Q_MS91_CETANE_0 0.7159     Q_MS91_DENSITY_0 0.9550    
    X_47_MS91_0    Q_MS91_RVP_0 0.0076     Q_MS91_FLASH_0 1.8084    
    X_47_MS95_0    COST      50.61      SAVL_STR_47_0 1.0
    X_47_MS95_0    PDEM_MS95_0 1.0
    X_47_MS95_0    Q_MS95_OCTANE_0 0.0971     Q_MS95_SULFUR_0 21.9603   
    X_47_MS95_0    Q_MS95_CETANE_0 0.7159     Q_MS95_DENSITY_0 0.9550    
    X_47_MS95_0    Q_MS95_RVP_0 0.0076     Q_MS95_FLASH_0 1.8084    
    X_47_HSD_BS6_0 COST      50.61      SAVL_STR_47_0 1.0
    X_47_HSD_BS6_0 PDEM_HSD_BS6_0 1.0
    X_47_HSD_BS6_0 Q_HSD_BS6_OCTANE_0 0.0971     Q_HSD_BS6_SULFUR_0 21.9603   
    X_47_HSD_BS6_0 Q_HSD_BS6_CETANE_0 0.7159     Q_HSD_BS6_DENSITY_0 0.9550    
    X_47_HSD_BS6_0 Q_HSD_BS6_RVP_0 0.0076     Q_HSD_BS6_FLASH_0 1.8084    
    X_47_JET_A1_0  COST      50.61      SAVL_STR_47_0 1.0
    X_47_JET_A1_0  PDEM_JET_A1_0 1.0
    X_47_JET_A1_0  Q_JET_A1_OCTANE_0 0.0971     Q_JET_A1_SULFUR_0 21.9603   
    X_47_JET_A1_0  Q_JET_A1_CETANE_0 0.7159     Q_JET_A1_DENSITY_0 0.9550    
    X_47_JET_A1_0  Q_JET_A1_RVP_0 0.0076     Q_JET_A1_FLASH_0 1.8084    
    X_47_MGO_0     COST      50.61      SAVL_STR_47_0 1.0
    X_47_MGO_0     PDEM_MGO_0 1.0
    X_47_MGO_0     Q_MGO_OCTANE_0 0.0971     Q_MGO_SULFUR_0 21.9603   
    X_47_MGO_0     Q_MGO_CETANE_0 0.7159     Q_MGO_DENSITY_0 0.9550    
    X_47_MGO_0     Q_MGO_RVP_0 0.0076     Q_MGO_FLASH_0 1.8084    
    X_47_FO380_0   COST      50.61      SAVL_STR_47_0 1.0
    X_47_FO380_0   PDEM_FO380_0 1.0
    X_47_FO380_0   Q_FO380_OCTANE_0 0.0971     Q_FO380_SULFUR_0 21.9603   
    X_47_FO380_0   Q_FO380_CETANE_0 0.7159     Q_FO380_DENSITY_0 0.9550    
    X_47_FO380_0   Q_FO380_RVP_0 0.0076     Q_FO380_FLASH_0 1.8084    
    X_48_MS91_0    COST      74.43      SAVL_STR_48_0 1.0
    X_48_MS91_0    PDEM_MS91_0 1.0
    X_48_MS91_0    Q_MS91_OCTANE_0 0.8978     Q_MS91_SULFUR_0 0.0747    
    X_48_MS91_0    Q_MS91_CETANE_0 0.4881     Q_MS91_DENSITY_0 0.7505    
    X_48_MS91_0    Q_MS91_RVP_0 1.6417     Q_MS91_FLASH_0 -0.5307   
    X_48_MS95_0    COST      74.43      SAVL_STR_48_0 1.0
    X_48_MS95_0    PDEM_MS95_0 1.0
    X_48_MS95_0    Q_MS95_OCTANE_0 0.8978     Q_MS95_SULFUR_0 0.0747    
    X_48_MS95_0    Q_MS95_CETANE_0 0.4881     Q_MS95_DENSITY_0 0.7505    
    X_48_MS95_0    Q_MS95_RVP_0 1.6417     Q_MS95_FLASH_0 -0.5307   
    X_48_HSD_BS6_0 COST      74.43      SAVL_STR_48_0 1.0
    X_48_HSD_BS6_0 PDEM_HSD_BS6_0 1.0
    X_48_HSD_BS6_0 Q_HSD_BS6_OCTANE_0 0.8978     Q_HSD_BS6_SULFUR_0 0.0747    
    X_48_HSD_BS6_0 Q_HSD_BS6_CETANE_0 0.4881     Q_HSD_BS6_DENSITY_0 0.7505    
    X_48_HSD_BS6_0 Q_HSD_BS6_RVP_0 1.6417     Q_HSD_BS6_FLASH_0 -0.5307   
    X_48_JET_A1_0  COST      74.43      SAVL_STR_48_0 1.0
    X_48_JET_A1_0  PDEM_JET_A1_0 1.0
    X_48_JET_A1_0  Q_JET_A1_OCTANE_0 0.8978     Q_JET_A1_SULFUR_0 0.0747    
    X_48_JET_A1_0  Q_JET_A1_CETANE_0 0.4881     Q_JET_A1_DENSITY_0 0.7505    
    X_48_JET_A1_0  Q_JET_A1_RVP_0 1.6417     Q_JET_A1_FLASH_0 -0.5307   
    X_48_MGO_0     COST      74.43      SAVL_STR_48_0 1.0
    X_48_MGO_0     PDEM_MGO_0 1.0
    X_48_MGO_0     Q_MGO_OCTANE_0 0.8978     Q_MGO_SULFUR_0 0.0747    
    X_48_MGO_0     Q_MGO_CETANE_0 0.4881     Q_MGO_DENSITY_0 0.7505    
    X_48_MGO_0     Q_MGO_RVP_0 1.6417     Q_MGO_FLASH_0 -0.5307   
    X_48_FO380_0   COST      74.43      SAVL_STR_48_0 1.0
    X_48_FO380_0   PDEM_FO380_0 1.0
    X_48_FO380_0   Q_FO380_OCTANE_0 0.8978     Q_FO380_SULFUR_0 0.0747    
    X_48_FO380_0   Q_FO380_CETANE_0 0.4881     Q_FO380_DENSITY_0 0.7505    
    X_48_FO380_0   Q_FO380_RVP_0 1.6417     Q_FO380_FLASH_0 -0.5307   
    X_49_MS91_0    COST      83.22      SAVL_STR_49_0 1.0
    X_49_MS91_0    PDEM_MS91_0 1.0
    X_49_MS91_0    Q_MS91_OCTANE_0 0.3501     Q_MS91_SULFUR_0 0.1504    
    X_49_MS91_0    Q_MS91_CETANE_0 0.9260     Q_MS91_DENSITY_0 0.8053    
    X_49_MS91_0    Q_MS91_RVP_0 0.1709     Q_MS91_FLASH_0 0.9395    
    X_49_MS95_0    COST      83.22      SAVL_STR_49_0 1.0
    X_49_MS95_0    PDEM_MS95_0 1.0
    X_49_MS95_0    Q_MS95_OCTANE_0 0.3501     Q_MS95_SULFUR_0 0.1504    
    X_49_MS95_0    Q_MS95_CETANE_0 0.9260     Q_MS95_DENSITY_0 0.8053    
    X_49_MS95_0    Q_MS95_RVP_0 0.1709     Q_MS95_FLASH_0 0.9395    
    X_49_HSD_BS6_0 COST      83.22      SAVL_STR_49_0 1.0
    X_49_HSD_BS6_0 PDEM_HSD_BS6_0 1.0
    X_49_HSD_BS6_0 Q_HSD_BS6_OCTANE_0 0.3501     Q_HSD_BS6_SULFUR_0 0.1504    
    X_49_HSD_BS6_0 Q_HSD_BS6_CETANE_0 0.9260     Q_HSD_BS6_DENSITY_0 0.8053    
    X_49_HSD_BS6_0 Q_HSD_BS6_RVP_0 0.1709     Q_HSD_BS6_FLASH_0 0.9395    
    X_49_JET_A1_0  COST      83.22      SAVL_STR_49_0 1.0
    X_49_JET_A1_0  PDEM_JET_A1_0 1.0
    X_49_JET_A1_0  Q_JET_A1_OCTANE_0 0.3501     Q_JET_A1_SULFUR_0 0.1504    
    X_49_JET_A1_0  Q_JET_A1_CETANE_0 0.9260     Q_JET_A1_DENSITY_0 0.8053    
    X_49_JET_A1_0  Q_JET_A1_RVP_0 0.1709     Q_JET_A1_FLASH_0 0.9395    
    X_49_MGO_0     COST      83.22      SAVL_STR_49_0 1.0
    X_49_MGO_0     PDEM_MGO_0 1.0
    X_49_MGO_0     Q_MGO_OCTANE_0 0.3501     Q_MGO_SULFUR_0 0.1504    
    X_49_MGO_0     Q_MGO_CETANE_0 0.9260     Q_MGO_DENSITY_0 0.8053    
    X_49_MGO_0     Q_MGO_RVP_0 0.1709     Q_MGO_FLASH_0 0.9395    
    X_49_FO380_0   COST      83.22      SAVL_STR_49_0 1.0
    X_49_FO380_0   PDEM_FO380_0 1.0
    X_49_FO380_0   Q_FO380_OCTANE_0 0.3501     Q_FO380_SULFUR_0 0.1504    
    X_49_FO380_0   Q_FO380_CETANE_0 0.9260     Q_FO380_DENSITY_0 0.8053    
    X_49_FO380_0   Q_FO380_RVP_0 0.1709     Q_FO380_FLASH_0 0.9395    
RHS
    RHS1      SAVL_STR_00_0        113.9427
    RHS1      SAVL_STR_01_0        92.1922
    RHS1      SAVL_STR_02_0        72.0441
    RHS1      SAVL_STR_03_0        145.7213
    RHS1      SAVL_STR_04_0        103.6228
    RHS1      SAVL_STR_05_0        120.4572
    RHS1      SAVL_STR_06_0        113.5684
    RHS1      SAVL_STR_07_0        67.1139
    RHS1      SAVL_STR_08_0        134.2852
    RHS1      SAVL_STR_09_0        137.6368
    RHS1      SAVL_STR_10_0        106.1368
    RHS1      SAVL_STR_11_0        59.0909
    RHS1      SAVL_STR_12_0        149.6121
    RHS1      SAVL_STR_13_0        76.6825
    RHS1      SAVL_STR_14_0        100.0586
    RHS1      SAVL_STR_15_0        126.2511
    RHS1      SAVL_STR_16_0        137.8722
    RHS1      SAVL_STR_17_0        56.9213
    RHS1      SAVL_STR_18_0        92.3138
    RHS1      SAVL_STR_19_0        93.8100
    RHS1      SAVL_STR_20_0        57.0993
    RHS1      SAVL_STR_21_0        71.4237
    RHS1      SAVL_STR_22_0        59.6931
    RHS1      SAVL_STR_23_0        90.2621
    RHS1      SAVL_STR_24_0        74.9806
    RHS1      SAVL_STR_25_0        146.8996
    RHS1      SAVL_STR_26_0        87.8973
    RHS1      SAVL_STR_27_0        105.5768
    RHS1      SAVL_STR_28_0        55.7165
    RHS1      SAVL_STR_29_0        109.5035
    RHS1      SAVL_STR_30_0        91.9225
    RHS1      SAVL_STR_31_0        117.1690
    RHS1      SAVL_STR_32_0        57.3261
    RHS1      SAVL_STR_33_0        133.3745
    RHS1      SAVL_STR_34_0        116.3389
    RHS1      SAVL_STR_35_0        121.7612
    RHS1      SAVL_STR_36_0        92.3576
    RHS1      SAVL_STR_37_0        92.7687
    RHS1      SAVL_STR_38_0        64.8094
    RHS1      SAVL_STR_39_0        74.9530
    RHS1      SAVL_STR_40_0        136.4606
    RHS1      SAVL_STR_41_0        130.2235
    RHS1      SAVL_STR_42_0        72.2434
    RHS1      SAVL_STR_43_0        82.8262
    RHS1      SAVL_STR_44_0        143.9237
    RHS1      SAVL_STR_45_0        122.8545
    RHS1      SAVL_STR_46_0        50.1691
    RHS1      SAVL_STR_47_0        116.4238
    RHS1      SAVL_STR_48_0        90.2400
    RHS1      SAVL_STR_49_0        80.0950
    RHS1      PDEM_MS91_0          60.0000
    RHS1      Q_MS91_OCTANE_0      54.6000
    RHS1      Q_MS91_SULFUR_0      6.0000
    RHS1      Q_MS91_DENSITY_0     46.5000
    RHS1      Q_MS91_RVP_0         72.0000
    RHS1      Q_MS91_FLASH_0       -48.0000
    RHS1      PDEM_MS95_0          40.0000
    RHS1      Q_MS95_OCTANE_0      38.0000
    RHS1      Q_MS95_SULFUR_0      4.0000
    RHS1      Q_MS95_DENSITY_0     31.2000
    RHS1      Q_MS95_RVP_0         48.0000
    RHS1      Q_MS95_FLASH_0       -32.0000
    RHS1      PDEM_HSD_BS6_0       120.0000
    RHS1      Q_HSD_BS6_SULFUR_0   12.0000
    RHS1      Q_HSD_BS6_CETANE_0   122.4000
    RHS1      Q_HSD_BS6_DENSITY_0  101.4000
    RHS1      Q_HSD_BS6_RVP_0      12.0000
    RHS1      Q_HSD_BS6_FLASH_0    84.0000
    RHS1      PDEM_JET_A1_0        50.0000
    RHS1      Q_JET_A1_SULFUR_0    15.0000
    RHS1      Q_JET_A1_CETANE_0    40.0000
    RHS1      Q_JET_A1_DENSITY_0   42.0000
    RHS1      Q_JET_A1_RVP_0       15.0000
    RHS1      Q_JET_A1_FLASH_0     38.0000
    RHS1      PDEM_MGO_0           35.0000
    RHS1      Q_MGO_SULFUR_0       175.0000
    RHS1      Q_MGO_CETANE_0       31.5000
    RHS1      Q_MGO_DENSITY_0      31.1500
    RHS1      Q_MGO_RVP_0          3.5000
    RHS1      Q_MGO_FLASH_0        42.0000
    RHS1      PDEM_FO380_0         45.0000
    RHS1      Q_FO380_SULFUR_0     1350.0000
    RHS1      Q_FO380_CETANE_0     18.0000
    RHS1      Q_FO380_DENSITY_0    44.5950
    RHS1      Q_FO380_RVP_0        1.8000
    RHS1      Q_FO380_FLASH_0      58.5000
BOUNDS
 UP BND       X_00_MS91_0    80.0
 UP BND       X_00_MS95_0    80.0
 UP BND       X_00_HSD_BS6_0 80.0
 UP BND       X_00_JET_A1_0  80.0
 UP BND       X_00_MGO_0     80.0
 UP BND       X_00_FO380_0   80.0
 UP BND       X_01_MS91_0    80.0
 UP BND       X_01_MS95_0    80.0
 UP BND       X_01_HSD_BS6_0 80.0
 UP BND       X_01_JET_A1_0  80.0
 UP BND       X_01_MGO_0     80.0
 UP BND       X_01_FO380_0   80.0
 UP BND       X_02_MS91_0    80.0
 UP BND       X_02_MS95_0    80.0
 UP BND       X_02_HSD_BS6_0 80.0
 UP BND       X_02_JET_A1_0  80.0
 UP BND       X_02_MGO_0     80.0
 UP BND       X_02_FO380_0   80.0
 UP BND       X_03_MS91_0    80.0
 UP BND       X_03_MS95_0    80.0
 UP BND       X_03_HSD_BS6_0 80.0
 UP BND       X_03_JET_A1_0  80.0
 UP BND       X_03_MGO_0     80.0
 UP BND       X_03_FO380_0   80.0
 UP BND       X_04_MS91_0    80.0
 UP BND       X_04_MS95_0    80.0
 UP BND       X_04_HSD_BS6_0 80.0
 UP BND       X_04_JET_A1_0  80.0
 UP BND       X_04_MGO_0     80.0
 UP BND       X_04_FO380_0   80.0
 UP BND       X_05_MS91_0    80.0
 UP BND       X_05_MS95_0    80.0
 UP BND       X_05_HSD_BS6_0 80.0
 UP BND       X_05_JET_A1_0  80.0
 UP BND       X_05_MGO_0     80.0
 UP BND       X_05_FO380_0   80.0
 UP BND       X_06_MS91_0    80.0
 UP BND       X_06_MS95_0    80.0
 UP BND       X_06_HSD_BS6_0 80.0
 UP BND       X_06_JET_A1_0  80.0
 UP BND       X_06_MGO_0     80.0
 UP BND       X_06_FO380_0   80.0
 UP BND       X_07_MS91_0    80.0
 UP BND       X_07_MS95_0    80.0
 UP BND       X_07_HSD_BS6_0 80.0
 UP BND       X_07_JET_A1_0  80.0
 UP BND       X_07_MGO_0     80.0
 UP BND       X_07_FO380_0   80.0
 UP BND       X_08_MS91_0    80.0
 UP BND       X_08_MS95_0    80.0
 UP BND       X_08_HSD_BS6_0 80.0
 UP BND       X_08_JET_A1_0  80.0
 UP BND       X_08_MGO_0     80.0
 UP BND       X_08_FO380_0   80.0
 UP BND       X_09_MS91_0    80.0
 UP BND       X_09_MS95_0    80.0
 UP BND       X_09_HSD_BS6_0 80.0
 UP BND       X_09_JET_A1_0  80.0
 UP BND       X_09_MGO_0     80.0
 UP BND       X_09_FO380_0   80.0
 UP BND       X_10_MS91_0    80.0
 UP BND       X_10_MS95_0    80.0
 UP BND       X_10_HSD_BS6_0 80.0
 UP BND       X_10_JET_A1_0  80.0
 UP BND       X_10_MGO_0     80.0
 UP BND       X_10_FO380_0   80.0
 UP BND       X_11_MS91_0    80.0
 UP BND       X_11_MS95_0    80.0
 UP BND       X_11_HSD_BS6_0 80.0
 UP BND       X_11_JET_A1_0  80.0
 UP BND       X_11_MGO_0     80.0
 UP BND       X_11_FO380_0   80.0
 UP BND       X_12_MS91_0    80.0
 UP BND       X_12_MS95_0    80.0
 UP BND       X_12_HSD_BS6_0 80.0
 UP BND       X_12_JET_A1_0  80.0
 UP BND       X_12_MGO_0     80.0
 UP BND       X_12_FO380_0   80.0
 UP BND       X_13_MS91_0    80.0
 UP BND       X_13_MS95_0    80.0
 UP BND       X_13_HSD_BS6_0 80.0
 UP BND       X_13_JET_A1_0  80.0
 UP BND       X_13_MGO_0     80.0
 UP BND       X_13_FO380_0   80.0
 UP BND       X_14_MS91_0    80.0
 UP BND       X_14_MS95_0    80.0
 UP BND       X_14_HSD_BS6_0 80.0
 UP BND       X_14_JET_A1_0  80.0
 UP BND       X_14_MGO_0     80.0
 UP BND       X_14_FO380_0   80.0
 UP BND       X_15_MS91_0    80.0
 UP BND       X_15_MS95_0    80.0
 UP BND       X_15_HSD_BS6_0 80.0
 UP BND       X_15_JET_A1_0  80.0
 UP BND       X_15_MGO_0     80.0
 UP BND       X_15_FO380_0   80.0
 UP BND       X_16_MS91_0    80.0
 UP BND       X_16_MS95_0    80.0
 UP BND       X_16_HSD_BS6_0 80.0
 UP BND       X_16_JET_A1_0  80.0
 UP BND       X_16_MGO_0     80.0
 UP BND       X_16_FO380_0   80.0
 UP BND       X_17_MS91_0    80.0
 UP BND       X_17_MS95_0    80.0
 UP BND       X_17_HSD_BS6_0 80.0
 UP BND       X_17_JET_A1_0  80.0
 UP BND       X_17_MGO_0     80.0
 UP BND       X_17_FO380_0   80.0
 UP BND       X_18_MS91_0    80.0
 UP BND       X_18_MS95_0    80.0
 UP BND       X_18_HSD_BS6_0 80.0
 UP BND       X_18_JET_A1_0  80.0
 UP BND       X_18_MGO_0     80.0
 UP BND       X_18_FO380_0   80.0
 UP BND       X_19_MS91_0    80.0
 UP BND       X_19_MS95_0    80.0
 UP BND       X_19_HSD_BS6_0 80.0
 UP BND       X_19_JET_A1_0  80.0
 UP BND       X_19_MGO_0     80.0
 UP BND       X_19_FO380_0   80.0
 UP BND       X_20_MS91_0    80.0
 UP BND       X_20_MS95_0    80.0
 UP BND       X_20_HSD_BS6_0 80.0
 UP BND       X_20_JET_A1_0  80.0
 UP BND       X_20_MGO_0     80.0
 UP BND       X_20_FO380_0   80.0
 UP BND       X_21_MS91_0    80.0
 UP BND       X_21_MS95_0    80.0
 UP BND       X_21_HSD_BS6_0 80.0
 UP BND       X_21_JET_A1_0  80.0
 UP BND       X_21_MGO_0     80.0
 UP BND       X_21_FO380_0   80.0
 UP BND       X_22_MS91_0    80.0
 UP BND       X_22_MS95_0    80.0
 UP BND       X_22_HSD_BS6_0 80.0
 UP BND       X_22_JET_A1_0  80.0
 UP BND       X_22_MGO_0     80.0
 UP BND       X_22_FO380_0   80.0
 UP BND       X_23_MS91_0    80.0
 UP BND       X_23_MS95_0    80.0
 UP BND       X_23_HSD_BS6_0 80.0
 UP BND       X_23_JET_A1_0  80.0
 UP BND       X_23_MGO_0     80.0
 UP BND       X_23_FO380_0   80.0
 UP BND       X_24_MS91_0    80.0
 UP BND       X_24_MS95_0    80.0
 UP BND       X_24_HSD_BS6_0 80.0
 UP BND       X_24_JET_A1_0  80.0
 UP BND       X_24_MGO_0     80.0
 UP BND       X_24_FO380_0   80.0
 UP BND       X_25_MS91_0    80.0
 UP BND       X_25_MS95_0    80.0
 UP BND       X_25_HSD_BS6_0 80.0
 UP BND       X_25_JET_A1_0  80.0
 UP BND       X_25_MGO_0     80.0
 UP BND       X_25_FO380_0   80.0
 UP BND       X_26_MS91_0    80.0
 UP BND       X_26_MS95_0    80.0
 UP BND       X_26_HSD_BS6_0 80.0
 UP BND       X_26_JET_A1_0  80.0
 UP BND       X_26_MGO_0     80.0
 UP BND       X_26_FO380_0   80.0
 UP BND       X_27_MS91_0    80.0
 UP BND       X_27_MS95_0    80.0
 UP BND       X_27_HSD_BS6_0 80.0
 UP BND       X_27_JET_A1_0  80.0
 UP BND       X_27_MGO_0     80.0
 UP BND       X_27_FO380_0   80.0
 UP BND       X_28_MS91_0    80.0
 UP BND       X_28_MS95_0    80.0
 UP BND       X_28_HSD_BS6_0 80.0
 UP BND       X_28_JET_A1_0  80.0
 UP BND       X_28_MGO_0     80.0
 UP BND       X_28_FO380_0   80.0
 UP BND       X_29_MS91_0    80.0
 UP BND       X_29_MS95_0    80.0
 UP BND       X_29_HSD_BS6_0 80.0
 UP BND       X_29_JET_A1_0  80.0
 UP BND       X_29_MGO_0     80.0
 UP BND       X_29_FO380_0   80.0
 UP BND       X_30_MS91_0    80.0
 UP BND       X_30_MS95_0    80.0
 UP BND       X_30_HSD_BS6_0 80.0
 UP BND       X_30_JET_A1_0  80.0
 UP BND       X_30_MGO_0     80.0
 UP BND       X_30_FO380_0   80.0
 UP BND       X_31_MS91_0    80.0
 UP BND       X_31_MS95_0    80.0
 UP BND       X_31_HSD_BS6_0 80.0
 UP BND       X_31_JET_A1_0  80.0
 UP BND       X_31_MGO_0     80.0
 UP BND       X_31_FO380_0   80.0
 UP BND       X_32_MS91_0    80.0
 UP BND       X_32_MS95_0    80.0
 UP BND       X_32_HSD_BS6_0 80.0
 UP BND       X_32_JET_A1_0  80.0
 UP BND       X_32_MGO_0     80.0
 UP BND       X_32_FO380_0   80.0
 UP BND       X_33_MS91_0    80.0
 UP BND       X_33_MS95_0    80.0
 UP BND       X_33_HSD_BS6_0 80.0
 UP BND       X_33_JET_A1_0  80.0
 UP BND       X_33_MGO_0     80.0
 UP BND       X_33_FO380_0   80.0
 UP BND       X_34_MS91_0    80.0
 UP BND       X_34_MS95_0    80.0
 UP BND       X_34_HSD_BS6_0 80.0
 UP BND       X_34_JET_A1_0  80.0
 UP BND       X_34_MGO_0     80.0
 UP BND       X_34_FO380_0   80.0
 UP BND       X_35_MS91_0    80.0
 UP BND       X_35_MS95_0    80.0
 UP BND       X_35_HSD_BS6_0 80.0
 UP BND       X_35_JET_A1_0  80.0
 UP BND       X_35_MGO_0     80.0
 UP BND       X_35_FO380_0   80.0
 UP BND       X_36_MS91_0    80.0
 UP BND       X_36_MS95_0    80.0
 UP BND       X_36_HSD_BS6_0 80.0
 UP BND       X_36_JET_A1_0  80.0
 UP BND       X_36_MGO_0     80.0
 UP BND       X_36_FO380_0   80.0
 UP BND       X_37_MS91_0    80.0
 UP BND       X_37_MS95_0    80.0
 UP BND       X_37_HSD_BS6_0 80.0
 UP BND       X_37_JET_A1_0  80.0
 UP BND       X_37_MGO_0     80.0
 UP BND       X_37_FO380_0   80.0
 UP BND       X_38_MS91_0    80.0
 UP BND       X_38_MS95_0    80.0
 UP BND       X_38_HSD_BS6_0 80.0
 UP BND       X_38_JET_A1_0  80.0
 UP BND       X_38_MGO_0     80.0
 UP BND       X_38_FO380_0   80.0
 UP BND       X_39_MS91_0    80.0
 UP BND       X_39_MS95_0    80.0
 UP BND       X_39_HSD_BS6_0 80.0
 UP BND       X_39_JET_A1_0  80.0
 UP BND       X_39_MGO_0     80.0
 UP BND       X_39_FO380_0   80.0
 UP BND       X_40_MS91_0    80.0
 UP BND       X_40_MS95_0    80.0
 UP BND       X_40_HSD_BS6_0 80.0
 UP BND       X_40_JET_A1_0  80.0
 UP BND       X_40_MGO_0     80.0
 UP BND       X_40_FO380_0   80.0
 UP BND       X_41_MS91_0    80.0
 UP BND       X_41_MS95_0    80.0
 UP BND       X_41_HSD_BS6_0 80.0
 UP BND       X_41_JET_A1_0  80.0
 UP BND       X_41_MGO_0     80.0
 UP BND       X_41_FO380_0   80.0
 UP BND       X_42_MS91_0    80.0
 UP BND       X_42_MS95_0    80.0
 UP BND       X_42_HSD_BS6_0 80.0
 UP BND       X_42_JET_A1_0  80.0
 UP BND       X_42_MGO_0     80.0
 UP BND       X_42_FO380_0   80.0
 UP BND       X_43_MS91_0    80.0
 UP BND       X_43_MS95_0    80.0
 UP BND       X_43_HSD_BS6_0 80.0
 UP BND       X_43_JET_A1_0  80.0
 UP BND       X_43_MGO_0     80.0
 UP BND       X_43_FO380_0   80.0
 UP BND       X_44_MS91_0    80.0
 UP BND       X_44_MS95_0    80.0
 UP BND       X_44_HSD_BS6_0 80.0
 UP BND       X_44_JET_A1_0  80.0
 UP BND       X_44_MGO_0     80.0
 UP BND       X_44_FO380_0   80.0
 UP BND       X_45_MS91_0    80.0
 UP BND       X_45_MS95_0    80.0
 UP BND       X_45_HSD_BS6_0 80.0
 UP BND       X_45_JET_A1_0  80.0
 UP BND       X_45_MGO_0     80.0
 UP BND       X_45_FO380_0   80.0
 UP BND       X_46_MS91_0    80.0
 UP BND       X_46_MS95_0    80.0
 UP BND       X_46_HSD_BS6_0 80.0
 UP BND       X_46_JET_A1_0  80.0
 UP BND       X_46_MGO_0     80.0
 UP BND       X_46_FO380_0   80.0
 UP BND       X_47_MS91_0    80.0
 UP BND       X_47_MS95_0    80.0
 UP BND       X_47_HSD_BS6_0 80.0
 UP BND       X_47_JET_A1_0  80.0
 UP BND       X_47_MGO_0     80.0
 UP BND       X_47_FO380_0   80.0
 UP BND       X_48_MS91_0    80.0
 UP BND       X_48_MS95_0    80.0
 UP BND       X_48_HSD_BS6_0 80.0
 UP BND       X_48_JET_A1_0  80.0
 UP BND       X_48_MGO_0     80.0
 UP BND       X_48_FO380_0   80.0
 UP BND       X_49_MS91_0    80.0
 UP BND       X_49_MS95_0    80.0
 UP BND       X_49_HSD_BS6_0 80.0
 UP BND       X_49_JET_A1_0  80.0
 UP BND       X_49_MGO_0     80.0
 UP BND       X_49_FO380_0   80.0
QUADOBJ
    X_00_MS91_0    X_00_MS91_0    0.2384
    X_00_MS95_0    X_00_MS95_0    0.1927
    X_00_HSD_BS6_0 X_00_HSD_BS6_0 0.2446
    X_00_JET_A1_0  X_00_JET_A1_0  0.3302
    X_00_MGO_0     X_00_MGO_0     0.3092
    X_00_FO380_0   X_00_FO380_0   0.1839
    X_01_MS91_0    X_01_MS91_0    0.1670
    X_01_MS95_0    X_01_MS95_0    0.2531
    X_01_HSD_BS6_0 X_01_HSD_BS6_0 0.2766
    X_01_JET_A1_0  X_01_JET_A1_0  0.2170
    X_01_MGO_0     X_01_MGO_0     0.3137
    X_01_FO380_0   X_01_FO380_0   0.3002
    X_02_MS91_0    X_02_MS91_0    0.2846
    X_02_MS95_0    X_02_MS95_0    0.1949
    X_02_HSD_BS6_0 X_02_HSD_BS6_0 0.1898
    X_02_JET_A1_0  X_02_JET_A1_0  0.1549
    X_02_MGO_0     X_02_MGO_0     0.1990
    X_02_FO380_0   X_02_FO380_0   0.2450
    X_03_MS91_0    X_03_MS91_0    0.3199
    X_03_MS95_0    X_03_MS95_0    0.1646
    X_03_HSD_BS6_0 X_03_HSD_BS6_0 0.2329
    X_03_JET_A1_0  X_03_JET_A1_0  0.2760
    X_03_MGO_0     X_03_MGO_0     0.1889
    X_03_FO380_0   X_03_FO380_0   0.2893
    X_04_MS91_0    X_04_MS91_0    0.2489
    X_04_MS95_0    X_04_MS95_0    0.1988
    X_04_HSD_BS6_0 X_04_HSD_BS6_0 0.2812
    X_04_JET_A1_0  X_04_JET_A1_0  0.1511
    X_04_MGO_0     X_04_MGO_0     0.3002
    X_04_FO380_0   X_04_FO380_0   0.3040
    X_05_MS91_0    X_05_MS91_0    0.1713
    X_05_MS95_0    X_05_MS95_0    0.2350
    X_05_HSD_BS6_0 X_05_HSD_BS6_0 0.1852
    X_05_JET_A1_0  X_05_JET_A1_0  0.3416
    X_05_MGO_0     X_05_MGO_0     0.2536
    X_05_FO380_0   X_05_FO380_0   0.1600
    X_06_MS91_0    X_06_MS91_0    0.1998
    X_06_MS95_0    X_06_MS95_0    0.3197
    X_06_HSD_BS6_0 X_06_HSD_BS6_0 0.2413
    X_06_JET_A1_0  X_06_JET_A1_0  0.3103
    X_06_MGO_0     X_06_MGO_0     0.2835
    X_06_FO380_0   X_06_FO380_0   0.3476
    X_07_MS91_0    X_07_MS91_0    0.2691
    X_07_MS95_0    X_07_MS95_0    0.3400
    X_07_HSD_BS6_0 X_07_HSD_BS6_0 0.3283
    X_07_JET_A1_0  X_07_JET_A1_0  0.2725
    X_07_MGO_0     X_07_MGO_0     0.2939
    X_07_FO380_0   X_07_FO380_0   0.2510
    X_08_MS91_0    X_08_MS91_0    0.3161
    X_08_MS95_0    X_08_MS95_0    0.2596
    X_08_HSD_BS6_0 X_08_HSD_BS6_0 0.3294
    X_08_JET_A1_0  X_08_JET_A1_0  0.2987
    X_08_MGO_0     X_08_MGO_0     0.2449
    X_08_FO380_0   X_08_FO380_0   0.2018
    X_09_MS91_0    X_09_MS91_0    0.1994
    X_09_MS95_0    X_09_MS95_0    0.2775
    X_09_HSD_BS6_0 X_09_HSD_BS6_0 0.3032
    X_09_JET_A1_0  X_09_JET_A1_0  0.2543
    X_09_MGO_0     X_09_MGO_0     0.2753
    X_09_FO380_0   X_09_FO380_0   0.2049
    X_10_MS91_0    X_10_MS91_0    0.1655
    X_10_MS95_0    X_10_MS95_0    0.2071
    X_10_HSD_BS6_0 X_10_HSD_BS6_0 0.2043
    X_10_JET_A1_0  X_10_JET_A1_0  0.2139
    X_10_MGO_0     X_10_MGO_0     0.2580
    X_10_FO380_0   X_10_FO380_0   0.1777
    X_11_MS91_0    X_11_MS91_0    0.1963
    X_11_MS95_0    X_11_MS95_0    0.2888
    X_11_HSD_BS6_0 X_11_HSD_BS6_0 0.2913
    X_11_JET_A1_0  X_11_JET_A1_0  0.1628
    X_11_MGO_0     X_11_MGO_0     0.2315
    X_11_FO380_0   X_11_FO380_0   0.2585
    X_12_MS91_0    X_12_MS91_0    0.2332
    X_12_MS95_0    X_12_MS95_0    0.1914
    X_12_HSD_BS6_0 X_12_HSD_BS6_0 0.2340
    X_12_JET_A1_0  X_12_JET_A1_0  0.3310
    X_12_MGO_0     X_12_MGO_0     0.2668
    X_12_FO380_0   X_12_FO380_0   0.2891
    X_13_MS91_0    X_13_MS91_0    0.3213
    X_13_MS95_0    X_13_MS95_0    0.3031
    X_13_HSD_BS6_0 X_13_HSD_BS6_0 0.2261
    X_13_JET_A1_0  X_13_JET_A1_0  0.1512
    X_13_MGO_0     X_13_MGO_0     0.2204
    X_13_FO380_0   X_13_FO380_0   0.3007
    X_14_MS91_0    X_14_MS91_0    0.3207
    X_14_MS95_0    X_14_MS95_0    0.3407
    X_14_HSD_BS6_0 X_14_HSD_BS6_0 0.2338
    X_14_JET_A1_0  X_14_JET_A1_0  0.2995
    X_14_MGO_0     X_14_MGO_0     0.2592
    X_14_FO380_0   X_14_FO380_0   0.2707
    X_15_MS91_0    X_15_MS91_0    0.1941
    X_15_MS95_0    X_15_MS95_0    0.1939
    X_15_HSD_BS6_0 X_15_HSD_BS6_0 0.2372
    X_15_JET_A1_0  X_15_JET_A1_0  0.1558
    X_15_MGO_0     X_15_MGO_0     0.2172
    X_15_FO380_0   X_15_FO380_0   0.2858
    X_16_MS91_0    X_16_MS91_0    0.2309
    X_16_MS95_0    X_16_MS95_0    0.1830
    X_16_HSD_BS6_0 X_16_HSD_BS6_0 0.2435
    X_16_JET_A1_0  X_16_JET_A1_0  0.1755
    X_16_MGO_0     X_16_MGO_0     0.2745
    X_16_FO380_0   X_16_FO380_0   0.1554
    X_17_MS91_0    X_17_MS91_0    0.2288
    X_17_MS95_0    X_17_MS95_0    0.2629
    X_17_HSD_BS6_0 X_17_HSD_BS6_0 0.1554
    X_17_JET_A1_0  X_17_JET_A1_0  0.2785
    X_17_MGO_0     X_17_MGO_0     0.1771
    X_17_FO380_0   X_17_FO380_0   0.2423
    X_18_MS91_0    X_18_MS91_0    0.1601
    X_18_MS95_0    X_18_MS95_0    0.2258
    X_18_HSD_BS6_0 X_18_HSD_BS6_0 0.1923
    X_18_JET_A1_0  X_18_JET_A1_0  0.2154
    X_18_MGO_0     X_18_MGO_0     0.3022
    X_18_FO380_0   X_18_FO380_0   0.2258
    X_19_MS91_0    X_19_MS91_0    0.3004
    X_19_MS95_0    X_19_MS95_0    0.3164
    X_19_HSD_BS6_0 X_19_HSD_BS6_0 0.2005
    X_19_JET_A1_0  X_19_JET_A1_0  0.1664
    X_19_MGO_0     X_19_MGO_0     0.1539
    X_19_FO380_0   X_19_FO380_0   0.2579
    X_20_MS91_0    X_20_MS91_0    0.3500
    X_20_MS95_0    X_20_MS95_0    0.2200
    X_20_HSD_BS6_0 X_20_HSD_BS6_0 0.2800
    X_20_JET_A1_0  X_20_JET_A1_0  0.3062
    X_20_MGO_0     X_20_MGO_0     0.2804
    X_20_FO380_0   X_20_FO380_0   0.3008
    X_21_MS91_0    X_21_MS91_0    0.3399
    X_21_MS95_0    X_21_MS95_0    0.1899
    X_21_HSD_BS6_0 X_21_HSD_BS6_0 0.1541
    X_21_JET_A1_0  X_21_JET_A1_0  0.1805
    X_21_MGO_0     X_21_MGO_0     0.1752
    X_21_FO380_0   X_21_FO380_0   0.2839
    X_22_MS91_0    X_22_MS91_0    0.2628
    X_22_MS95_0    X_22_MS95_0    0.1936
    X_22_HSD_BS6_0 X_22_HSD_BS6_0 0.2899
    X_22_JET_A1_0  X_22_JET_A1_0  0.3034
    X_22_MGO_0     X_22_MGO_0     0.1836
    X_22_FO380_0   X_22_FO380_0   0.2714
    X_23_MS91_0    X_23_MS91_0    0.2996
    X_23_MS95_0    X_23_MS95_0    0.1729
    X_23_HSD_BS6_0 X_23_HSD_BS6_0 0.3139
    X_23_JET_A1_0  X_23_JET_A1_0  0.3429
    X_23_MGO_0     X_23_MGO_0     0.1716
    X_23_FO380_0   X_23_FO380_0   0.1551
    X_24_MS91_0    X_24_MS91_0    0.2124
    X_24_MS95_0    X_24_MS95_0    0.2855
    X_24_HSD_BS6_0 X_24_HSD_BS6_0 0.3416
    X_24_JET_A1_0  X_24_JET_A1_0  0.2293
    X_24_MGO_0     X_24_MGO_0     0.2930
    X_24_FO380_0   X_24_FO380_0   0.1652
    X_25_MS91_0    X_25_MS91_0    0.2881
    X_25_MS95_0    X_25_MS95_0    0.2754
    X_25_HSD_BS6_0 X_25_HSD_BS6_0 0.1704
    X_25_JET_A1_0  X_25_JET_A1_0  0.3045
    X_25_MGO_0     X_25_MGO_0     0.3201
    X_25_FO380_0   X_25_FO380_0   0.2701
    X_26_MS91_0    X_26_MS91_0    0.1742
    X_26_MS95_0    X_26_MS95_0    0.3468
    X_26_HSD_BS6_0 X_26_HSD_BS6_0 0.3065
    X_26_JET_A1_0  X_26_JET_A1_0  0.2194
    X_26_MGO_0     X_26_MGO_0     0.2357
    X_26_FO380_0   X_26_FO380_0   0.2241
    X_27_MS91_0    X_27_MS91_0    0.2512
    X_27_MS95_0    X_27_MS95_0    0.2182
    X_27_HSD_BS6_0 X_27_HSD_BS6_0 0.3199
    X_27_JET_A1_0  X_27_JET_A1_0  0.3145
    X_27_MGO_0     X_27_MGO_0     0.1711
    X_27_FO380_0   X_27_FO380_0   0.3422
    X_28_MS91_0    X_28_MS91_0    0.2771
    X_28_MS95_0    X_28_MS95_0    0.3157
    X_28_HSD_BS6_0 X_28_HSD_BS6_0 0.2915
    X_28_JET_A1_0  X_28_JET_A1_0  0.2371
    X_28_MGO_0     X_28_MGO_0     0.2968
    X_28_FO380_0   X_28_FO380_0   0.3431
    X_29_MS91_0    X_29_MS91_0    0.2040
    X_29_MS95_0    X_29_MS95_0    0.3116
    X_29_HSD_BS6_0 X_29_HSD_BS6_0 0.2576
    X_29_JET_A1_0  X_29_JET_A1_0  0.2467
    X_29_MGO_0     X_29_MGO_0     0.2371
    X_29_FO380_0   X_29_FO380_0   0.2962
    X_30_MS91_0    X_30_MS91_0    0.2037
    X_30_MS95_0    X_30_MS95_0    0.3203
    X_30_HSD_BS6_0 X_30_HSD_BS6_0 0.3161
    X_30_JET_A1_0  X_30_JET_A1_0  0.1673
    X_30_MGO_0     X_30_MGO_0     0.3263
    X_30_FO380_0   X_30_FO380_0   0.1988
    X_31_MS91_0    X_31_MS91_0    0.2429
    X_31_MS95_0    X_31_MS95_0    0.2721
    X_31_HSD_BS6_0 X_31_HSD_BS6_0 0.2258
    X_31_JET_A1_0  X_31_JET_A1_0  0.1557
    X_31_MGO_0     X_31_MGO_0     0.3202
    X_31_FO380_0   X_31_FO380_0   0.1864
    X_32_MS91_0    X_32_MS91_0    0.1924
    X_32_MS95_0    X_32_MS95_0    0.3096
    X_32_HSD_BS6_0 X_32_HSD_BS6_0 0.2181
    X_32_JET_A1_0  X_32_JET_A1_0  0.3261
    X_32_MGO_0     X_32_MGO_0     0.2902
    X_32_FO380_0   X_32_FO380_0   0.2053
    X_33_MS91_0    X_33_MS91_0    0.1520
    X_33_MS95_0    X_33_MS95_0    0.3396
    X_33_HSD_BS6_0 X_33_HSD_BS6_0 0.1671
    X_33_JET_A1_0  X_33_JET_A1_0  0.2940
    X_33_MGO_0     X_33_MGO_0     0.2477
    X_33_FO380_0   X_33_FO380_0   0.3016
    X_34_MS91_0    X_34_MS91_0    0.2881
    X_34_MS95_0    X_34_MS95_0    0.2792
    X_34_HSD_BS6_0 X_34_HSD_BS6_0 0.2482
    X_34_JET_A1_0  X_34_JET_A1_0  0.3086
    X_34_MGO_0     X_34_MGO_0     0.1686
    X_34_FO380_0   X_34_FO380_0   0.1943
    X_35_MS91_0    X_35_MS91_0    0.2884
    X_35_MS95_0    X_35_MS95_0    0.2112
    X_35_HSD_BS6_0 X_35_HSD_BS6_0 0.2663
    X_35_JET_A1_0  X_35_JET_A1_0  0.2447
    X_35_MGO_0     X_35_MGO_0     0.2562
    X_35_FO380_0   X_35_FO380_0   0.2351
    X_36_MS91_0    X_36_MS91_0    0.2992
    X_36_MS95_0    X_36_MS95_0    0.2162
    X_36_HSD_BS6_0 X_36_HSD_BS6_0 0.2906
    X_36_JET_A1_0  X_36_JET_A1_0  0.2042
    X_36_MGO_0     X_36_MGO_0     0.2003
    X_36_FO380_0   X_36_FO380_0   0.1741
    X_37_MS91_0    X_37_MS91_0    0.1885
    X_37_MS95_0    X_37_MS95_0    0.1739
    X_37_HSD_BS6_0 X_37_HSD_BS6_0 0.2572
    X_37_JET_A1_0  X_37_JET_A1_0  0.3024
    X_37_MGO_0     X_37_MGO_0     0.1870
    X_37_FO380_0   X_37_FO380_0   0.1933
    X_38_MS91_0    X_38_MS91_0    0.2468
    X_38_MS95_0    X_38_MS95_0    0.2949
    X_38_HSD_BS6_0 X_38_HSD_BS6_0 0.3453
    X_38_JET_A1_0  X_38_JET_A1_0  0.2549
    X_38_MGO_0     X_38_MGO_0     0.2066
    X_38_FO380_0   X_38_FO380_0   0.1701
    X_39_MS91_0    X_39_MS91_0    0.1888
    X_39_MS95_0    X_39_MS95_0    0.1955
    X_39_HSD_BS6_0 X_39_HSD_BS6_0 0.1859
    X_39_JET_A1_0  X_39_JET_A1_0  0.1528
    X_39_MGO_0     X_39_MGO_0     0.2568
    X_39_FO380_0   X_39_FO380_0   0.2049
    X_40_MS91_0    X_40_MS91_0    0.3449
    X_40_MS95_0    X_40_MS95_0    0.2607
    X_40_HSD_BS6_0 X_40_HSD_BS6_0 0.2895
    X_40_JET_A1_0  X_40_JET_A1_0  0.1753
    X_40_MGO_0     X_40_MGO_0     0.3237
    X_40_FO380_0   X_40_FO380_0   0.2482
    X_41_MS91_0    X_41_MS91_0    0.3245
    X_41_MS95_0    X_41_MS95_0    0.2648
    X_41_HSD_BS6_0 X_41_HSD_BS6_0 0.2439
    X_41_JET_A1_0  X_41_JET_A1_0  0.2381
    X_41_MGO_0     X_41_MGO_0     0.1869
    X_41_FO380_0   X_41_FO380_0   0.1603
    X_42_MS91_0    X_42_MS91_0    0.3382
    X_42_MS95_0    X_42_MS95_0    0.2455
    X_42_HSD_BS6_0 X_42_HSD_BS6_0 0.3144
    X_42_JET_A1_0  X_42_JET_A1_0  0.2301
    X_42_MGO_0     X_42_MGO_0     0.1648
    X_42_FO380_0   X_42_FO380_0   0.2759
    X_43_MS91_0    X_43_MS91_0    0.1607
    X_43_MS95_0    X_43_MS95_0    0.1798
    X_43_HSD_BS6_0 X_43_HSD_BS6_0 0.2626
    X_43_JET_A1_0  X_43_JET_A1_0  0.2108
    X_43_MGO_0     X_43_MGO_0     0.3488
    X_43_FO380_0   X_43_FO380_0   0.1737
    X_44_MS91_0    X_44_MS91_0    0.3029
    X_44_MS95_0    X_44_MS95_0    0.2713
    X_44_HSD_BS6_0 X_44_HSD_BS6_0 0.3081
    X_44_JET_A1_0  X_44_JET_A1_0  0.1951
    X_44_MGO_0     X_44_MGO_0     0.2545
    X_44_FO380_0   X_44_FO380_0   0.2401
    X_45_MS91_0    X_45_MS91_0    0.2385
    X_45_MS95_0    X_45_MS95_0    0.3220
    X_45_HSD_BS6_0 X_45_HSD_BS6_0 0.3480
    X_45_JET_A1_0  X_45_JET_A1_0  0.2111
    X_45_MGO_0     X_45_MGO_0     0.2742
    X_45_FO380_0   X_45_FO380_0   0.2719
    X_46_MS91_0    X_46_MS91_0    0.2980
    X_46_MS95_0    X_46_MS95_0    0.3395
    X_46_HSD_BS6_0 X_46_HSD_BS6_0 0.1916
    X_46_JET_A1_0  X_46_JET_A1_0  0.1922
    X_46_MGO_0     X_46_MGO_0     0.2821
    X_46_FO380_0   X_46_FO380_0   0.1814
    X_47_MS91_0    X_47_MS91_0    0.1848
    X_47_MS95_0    X_47_MS95_0    0.1650
    X_47_HSD_BS6_0 X_47_HSD_BS6_0 0.1505
    X_47_JET_A1_0  X_47_JET_A1_0  0.2401
    X_47_MGO_0     X_47_MGO_0     0.2688
    X_47_FO380_0   X_47_FO380_0   0.2083
    X_48_MS91_0    X_48_MS91_0    0.1963
    X_48_MS95_0    X_48_MS95_0    0.2914
    X_48_HSD_BS6_0 X_48_HSD_BS6_0 0.2906
    X_48_JET_A1_0  X_48_JET_A1_0  0.2408
    X_48_MGO_0     X_48_MGO_0     0.2875
    X_48_FO380_0   X_48_FO380_0   0.3348
    X_49_MS91_0    X_49_MS91_0    0.3076
    X_49_MS95_0    X_49_MS95_0    0.2750
    X_49_HSD_BS6_0 X_49_HSD_BS6_0 0.2822
    X_49_JET_A1_0  X_49_JET_A1_0  0.3367
    X_49_MGO_0     X_49_MGO_0     0.2350
    X_49_FO380_0   X_49_FO380_0   0.2589
ENDATA
