* Units: production X, inventory I, demand and safety stock tonnes per period;
* line capacity RHS hours/period, production time hours/tonne, setup time hours.
* COST: variable and holding coefficients USD/tonne; Y setup cost USD/setup.
* Synthetic qualification data; not plant operating data; deterministic for a fixed seed.
NAME PROD_PLAN_LARGE
ROWS
 N COST
 E IB_00_00
 E IB_01_00
 E IB_02_00
 E IB_03_00
 E IB_04_00
 E IB_05_00
 L LC_00_00
 L SL_00_00
 L VUB_00_00_00
 L VUB_01_00_00
 L VUB_02_00_00
 L VUB_03_00_00
 L VUB_04_00_00
 L VUB_05_00_00
 L LC_01_00
 L SL_01_00
 L VUB_00_01_00
 L VUB_01_01_00
 L VUB_02_01_00
 L VUB_03_01_00
 L VUB_04_01_00
 L VUB_05_01_00
 L LC_02_00
 L SL_02_00
 L VUB_00_02_00
 L VUB_01_02_00
 L VUB_02_02_00
 L VUB_03_02_00
 L VUB_04_02_00
 L VUB_05_02_00
 E IB_00_01
 E IB_01_01
 E IB_02_01
 E IB_03_01
 E IB_04_01
 E IB_05_01
 L LC_00_01
 L SL_00_01
 L VUB_00_00_01
 L VUB_01_00_01
 L VUB_02_00_01
 L VUB_03_00_01
 L VUB_04_00_01
 L VUB_05_00_01
 L LC_01_01
 L SL_01_01
 L VUB_00_01_01
 L VUB_01_01_01
 L VUB_02_01_01
 L VUB_03_01_01
 L VUB_04_01_01
 L VUB_05_01_01
 L LC_02_01
 L SL_02_01
 L VUB_00_02_01
 L VUB_01_02_01
 L VUB_02_02_01
 L VUB_03_02_01
 L VUB_04_02_01
 L VUB_05_02_01
 E IB_00_02
 E IB_01_02
 E IB_02_02
 E IB_03_02
 E IB_04_02
 E IB_05_02
 L LC_00_02
 L SL_00_02
 L VUB_00_00_02
 L VUB_01_00_02
 L VUB_02_00_02
 L VUB_03_00_02
 L VUB_04_00_02
 L VUB_05_00_02
 L LC_01_02
 L SL_01_02
 L VUB_00_01_02
 L VUB_01_01_02
 L VUB_02_01_02
 L VUB_03_01_02
 L VUB_04_01_02
 L VUB_05_01_02
 L LC_02_02
 L SL_02_02
 L VUB_00_02_02
 L VUB_01_02_02
 L VUB_02_02_02
 L VUB_03_02_02
 L VUB_04_02_02
 L VUB_05_02_02
 E IB_00_03
 E IB_01_03
 E IB_02_03
 E IB_03_03
 E IB_04_03
 E IB_05_03
 L LC_00_03
 L SL_00_03
 L VUB_00_00_03
 L VUB_01_00_03
 L VUB_02_00_03
 L VUB_03_00_03
 L VUB_04_00_03
 L VUB_05_00_03
 L LC_01_03
 L SL_01_03
 L VUB_00_01_03
 L VUB_01_01_03
 L VUB_02_01_03
 L VUB_03_01_03
 L VUB_04_01_03
 L VUB_05_01_03
 L LC_02_03
 L SL_02_03
 L VUB_00_02_03
 L VUB_01_02_03
 L VUB_02_02_03
 L VUB_03_02_03
 L VUB_04_02_03
 L VUB_05_02_03
COLUMNS
    MARK0000  'MARKER'                 'INTORG'
    Y00_0_00       COST      440.29     LC_00_00   7.05      
    Y00_0_00       VUB_00_00_00 -821.55    SL_00_00   1.0
    Y01_0_00       COST      352.07     LC_00_00   6.49      
    Y01_0_00       VUB_01_00_00 -1209.97   SL_00_00   1.0
    Y02_0_00       COST      229.76     LC_00_00   7.79      
    Y02_0_00       VUB_02_00_00 -685.18    SL_00_00   1.0
    Y03_0_00       COST      231.48     LC_00_00   3.48      
    Y03_0_00       VUB_03_00_00 -1574.78   SL_00_00   1.0
    Y04_0_00       COST      372.49     LC_00_00   7.04      
    Y04_0_00       VUB_04_00_00 -1548.03   SL_00_00   1.0
    Y05_0_00       COST      223.33     LC_00_00   7.87      
    Y05_0_00       VUB_05_00_00 -881.11    SL_00_00   1.0
    Y00_1_00       COST      366.48     LC_01_00   3.03      
    Y00_1_00       VUB_00_01_00 -1590.02   SL_01_00   1.0
    Y01_1_00       COST      396.60     LC_01_00   4.70      
    Y01_1_00       VUB_01_01_00 -775.87    SL_01_00   1.0
    Y02_1_00       COST      251.29     LC_01_00   4.68      
    Y02_1_00       VUB_02_01_00 -1444.76   SL_01_00   1.0
    Y03_1_00       COST      185.35     LC_01_00   7.24      
    Y03_1_00       VUB_03_01_00 -1210.60   SL_01_00   1.0
    Y04_1_00       COST      277.69     LC_01_00   6.65      
    Y04_1_00       VUB_04_01_00 -1242.83   SL_01_00   1.0
    Y05_1_00       COST      243.44     LC_01_00   4.89      
    Y05_1_00       VUB_05_01_00 -1225.76   SL_01_00   1.0
    Y00_2_00       COST      451.60     LC_02_00   7.03      
    Y00_2_00       VUB_00_02_00 -1139.58   SL_02_00   1.0
    Y01_2_00       COST      166.04     LC_02_00   3.78      
    Y01_2_00       VUB_01_02_00 -814.98    SL_02_00   1.0
    Y02_2_00       COST      177.93     LC_02_00   3.46      
    Y02_2_00       VUB_02_02_00 -1007.64   SL_02_00   1.0
    Y03_2_00       COST      247.29     LC_02_00   6.02      
    Y03_2_00       VUB_03_02_00 -921.38    SL_02_00   1.0
    Y04_2_00       COST      279.56     LC_02_00   5.68      
    Y04_2_00       VUB_04_02_00 -821.94    SL_02_00   1.0
    Y05_2_00       COST      477.83     LC_02_00   5.76      
    Y05_2_00       VUB_05_02_00 -861.19    SL_02_00   1.0
    Y00_0_01       COST      440.29     LC_00_01   7.05      
    Y00_0_01       VUB_00_00_01 -821.55    SL_00_01   1.0
    Y01_0_01       COST      352.07     LC_00_01   6.49      
    Y01_0_01       VUB_01_00_01 -1209.97   SL_00_01   1.0
    Y02_0_01       COST      229.76     LC_00_01   7.79      
    Y02_0_01       VUB_02_00_01 -685.18    SL_00_01   1.0
    Y03_0_01       COST      231.48     LC_00_01   3.48      
    Y03_0_01       VUB_03_00_01 -1574.78   SL_00_01   1.0
    Y04_0_01       COST      372.49     LC_00_01   7.04      
    Y04_0_01       VUB_04_00_01 -1548.03   SL_00_01   1.0
    Y05_0_01       COST      223.33     LC_00_01   7.87      
    Y05_0_01       VUB_05_00_01 -881.11    SL_00_01   1.0
    Y00_1_01       COST      366.48     LC_01_01   3.03      
    Y00_1_01       VUB_00_01_01 -1590.02   SL_01_01   1.0
    Y01_1_01       COST      396.60     LC_01_01   4.70      
    Y01_1_01       VUB_01_01_01 -775.87    SL_01_01   1.0
    Y02_1_01       COST      251.29     LC_01_01   4.68      
    Y02_1_01       VUB_02_01_01 -1444.76   SL_01_01   1.0
    Y03_1_01       COST      185.35     LC_01_01   7.24      
    Y03_1_01       VUB_03_01_01 -1210.60   SL_01_01   1.0
    Y04_1_01       COST      277.69     LC_01_01   6.65      
    Y04_1_01       VUB_04_01_01 -1242.83   SL_01_01   1.0
    Y05_1_01       COST      243.44     LC_01_01   4.89      
    Y05_1_01       VUB_05_01_01 -1225.76   SL_01_01   1.0
    Y00_2_01       COST      451.60     LC_02_01   7.03      
    Y00_2_01       VUB_00_02_01 -1139.58   SL_02_01   1.0
    Y01_2_01       COST      166.04     LC_02_01   3.78      
    Y01_2_01       VUB_01_02_01 -814.98    SL_02_01   1.0
    Y02_2_01       COST      177.93     LC_02_01   3.46      
    Y02_2_01       VUB_02_02_01 -1007.64   SL_02_01   1.0
    Y03_2_01       COST      247.29     LC_02_01   6.02      
    Y03_2_01       VUB_03_02_01 -921.38    SL_02_01   1.0
    Y04_2_01       COST      279.56     LC_02_01   5.68      
    Y04_2_01       VUB_04_02_01 -821.94    SL_02_01   1.0
    Y05_2_01       COST      477.83     LC_02_01   5.76      
    Y05_2_01       VUB_05_02_01 -861.19    SL_02_01   1.0
    Y00_0_02       COST      440.29     LC_00_02   7.05      
    Y00_0_02       VUB_00_00_02 -821.55    SL_00_02   1.0
    Y01_0_02       COST      352.07     LC_00_02   6.49      
    Y01_0_02       VUB_01_00_02 -1209.97   SL_00_02   1.0
    Y02_0_02       COST      229.76     LC_00_02   7.79      
    Y02_0_02       VUB_02_00_02 -685.18    SL_00_02   1.0
    Y03_0_02       COST      231.48     LC_00_02   3.48      
    Y03_0_02       VUB_03_00_02 -1574.78   SL_00_02   1.0
    Y04_0_02       COST      372.49     LC_00_02   7.04      
    Y04_0_02       VUB_04_00_02 -1548.03   SL_00_02   1.0
    Y05_0_02       COST      223.33     LC_00_02   7.87      
    Y05_0_02       VUB_05_00_02 -881.11    SL_00_02   1.0
    Y00_1_02       COST      366.48     LC_01_02   3.03      
    Y00_1_02       VUB_00_01_02 -1590.02   SL_01_02   1.0
    Y01_1_02       COST      396.60     LC_01_02   4.70      
    Y01_1_02       VUB_01_01_02 -775.87    SL_01_02   1.0
    Y02_1_02       COST      251.29     LC_01_02   4.68      
    Y02_1_02       VUB_02_01_02 -1444.76   SL_01_02   1.0
    Y03_1_02       COST      185.35     LC_01_02   7.24      
    Y03_1_02       VUB_03_01_02 -1210.60   SL_01_02   1.0
    Y04_1_02       COST      277.69     LC_01_02   6.65      
    Y04_1_02       VUB_04_01_02 -1242.83   SL_01_02   1.0
    Y05_1_02       COST      243.44     LC_01_02   4.89      
    Y05_1_02       VUB_05_01_02 -1225.76   SL_01_02   1.0
    Y00_2_02       COST      451.60     LC_02_02   7.03      
    Y00_2_02       VUB_00_02_02 -1139.58   SL_02_02   1.0
    Y01_2_02       COST      166.04     LC_02_02   3.78      
    Y01_2_02       VUB_01_02_02 -814.98    SL_02_02   1.0
    Y02_2_02       COST      177.93     LC_02_02   3.46      
    Y02_2_02       VUB_02_02_02 -1007.64   SL_02_02   1.0
    Y03_2_02       COST      247.29     LC_02_02   6.02      
    Y03_2_02       VUB_03_02_02 -921.38    SL_02_02   1.0
    Y04_2_02       COST      279.56     LC_02_02   5.68      
    Y04_2_02       VUB_04_02_02 -821.94    SL_02_02   1.0
    Y05_2_02       COST      477.83     LC_02_02   5.76      
    Y05_2_02       VUB_05_02_02 -861.19    SL_02_02   1.0
    Y00_0_03       COST      440.29     LC_00_03   7.05      
    Y00_0_03       VUB_00_00_03 -821.55    SL_00_03   1.0
    Y01_0_03       COST      352.07     LC_00_03   6.49      
    Y01_0_03       VUB_01_00_03 -1209.97   SL_00_03   1.0
    Y02_0_03       COST      229.76     LC_00_03   7.79      
    Y02_0_03       VUB_02_00_03 -685.18    SL_00_03   1.0
    Y03_0_03       COST      231.48     LC_00_03   3.48      
    Y03_0_03       VUB_03_00_03 -1574.78   SL_00_03   1.0
    Y04_0_03       COST      372.49     LC_00_03   7.04      
    Y04_0_03       VUB_04_00_03 -1548.03   SL_00_03   1.0
    Y05_0_03       COST      223.33     LC_00_03   7.87      
    Y05_0_03       VUB_05_00_03 -881.11    SL_00_03   1.0
    Y00_1_03       COST      366.48     LC_01_03   3.03      
    Y00_1_03       VUB_00_01_03 -1590.02   SL_01_03   1.0
    Y01_1_03       COST      396.60     LC_01_03   4.70      
    Y01_1_03       VUB_01_01_03 -775.87    SL_01_03   1.0
    Y02_1_03       COST      251.29     LC_01_03   4.68      
    Y02_1_03       VUB_02_01_03 -1444.76   SL_01_03   1.0
    Y03_1_03       COST      185.35     LC_01_03   7.24      
    Y03_1_03       VUB_03_01_03 -1210.60   SL_01_03   1.0
    Y04_1_03       COST      277.69     LC_01_03   6.65      
    Y04_1_03       VUB_04_01_03 -1242.83   SL_01_03   1.0
    Y05_1_03       COST      243.44     LC_01_03   4.89      
    Y05_1_03       VUB_05_01_03 -1225.76   SL_01_03   1.0
    Y00_2_03       COST      451.60     LC_02_03   7.03      
    Y00_2_03       VUB_00_02_03 -1139.58   SL_02_03   1.0
    Y01_2_03       COST      166.04     LC_02_03   3.78      
    Y01_2_03       VUB_01_02_03 -814.98    SL_02_03   1.0
    Y02_2_03       COST      177.93     LC_02_03   3.46      
    Y02_2_03       VUB_02_02_03 -1007.64   SL_02_03   1.0
    Y03_2_03       COST      247.29     LC_02_03   6.02      
    Y03_2_03       VUB_03_02_03 -921.38    SL_02_03   1.0
    Y04_2_03       COST      279.56     LC_02_03   5.68      
    Y04_2_03       VUB_04_02_03 -821.94    SL_02_03   1.0
    Y05_2_03       COST      477.83     LC_02_03   5.76      
    Y05_2_03       VUB_05_02_03 -861.19    SL_02_03   1.0
    MARK0001  'MARKER'                 'INTEND'
    X00_0_00       COST      60.92      IB_00_00   1.0
    X00_0_00       LC_00_00   0.1959     VUB_00_00_00 1.0
    X01_0_00       COST      64.17      IB_01_00   1.0
    X01_0_00       LC_00_00   0.1335     VUB_01_00_00 1.0
    X02_0_00       COST      74.58      IB_02_00   1.0
    X02_0_00       LC_00_00   0.2338     VUB_02_00_00 1.0
    X03_0_00       COST      62.38      IB_03_00   1.0
    X03_0_00       LC_00_00   0.1045     VUB_03_00_00 1.0
    X04_0_00       COST      44.16      IB_04_00   1.0
    X04_0_00       LC_00_00   0.1040     VUB_04_00_00 1.0
    X05_0_00       COST      45.71      IB_05_00   1.0
    X05_0_00       LC_00_00   0.1817     VUB_05_00_00 1.0
    X00_1_00       COST      59.37      IB_00_00   1.0
    X00_1_00       LC_01_00   0.1038     VUB_00_01_00 1.0
    X01_1_00       COST      41.54      IB_01_00   1.0
    X01_1_00       LC_01_00   0.2105     VUB_01_01_00 1.0
    X02_1_00       COST      60.60      IB_02_00   1.0
    X02_1_00       LC_01_00   0.1130     VUB_02_01_00 1.0
    X03_1_00       COST      68.71      IB_03_00   1.0
    X03_1_00       LC_01_00   0.1328     VUB_03_01_00 1.0
    X04_1_00       COST      36.28      IB_04_00   1.0
    X04_1_00       LC_01_00   0.1298     VUB_04_01_00 1.0
    X05_1_00       COST      43.44      IB_05_00   1.0
    X05_1_00       LC_01_00   0.1331     VUB_05_01_00 1.0
    X00_2_00       COST      41.85      IB_00_00   1.0
    X00_2_00       LC_02_00   0.1413     VUB_00_02_00 1.0
    X01_2_00       COST      50.18      IB_01_00   1.0
    X01_2_00       LC_02_00   0.2015     VUB_01_02_00 1.0
    X02_2_00       COST      57.28      IB_02_00   1.0
    X02_2_00       LC_02_00   0.1633     VUB_02_02_00 1.0
    X03_2_00       COST      66.04      IB_03_00   1.0
    X03_2_00       LC_02_00   0.1758     VUB_03_02_00 1.0
    X04_2_00       COST      47.62      IB_04_00   1.0
    X04_2_00       LC_02_00   0.1975     VUB_04_02_00 1.0
    X05_2_00       COST      72.72      IB_05_00   1.0
    X05_2_00       LC_02_00   0.1884     VUB_05_02_00 1.0
    X00_0_01       COST      60.92      IB_00_01   1.0
    X00_0_01       LC_00_01   0.1959     VUB_00_00_01 1.0
    X01_0_01       COST      64.17      IB_01_01   1.0
    X01_0_01       LC_00_01   0.1335     VUB_01_00_01 1.0
    X02_0_01       COST      74.58      IB_02_01   1.0
    X02_0_01       LC_00_01   0.2338     VUB_02_00_01 1.0
    X03_0_01       COST      62.38      IB_03_01   1.0
    X03_0_01       LC_00_01   0.1045     VUB_03_00_01 1.0
    X04_0_01       COST      44.16      IB_04_01   1.0
    X04_0_01       LC_00_01   0.1040     VUB_04_00_01 1.0
    X05_0_01       COST      45.71      IB_05_01   1.0
    X05_0_01       LC_00_01   0.1817     VUB_05_00_01 1.0
    X00_1_01       COST      59.37      IB_00_01   1.0
    X00_1_01       LC_01_01   0.1038     VUB_00_01_01 1.0
    X01_1_01       COST      41.54      IB_01_01   1.0
    X01_1_01       LC_01_01   0.2105     VUB_01_01_01 1.0
    X02_1_01       COST      60.60      IB_02_01   1.0
    X02_1_01       LC_01_01   0.1130     VUB_02_01_01 1.0
    X03_1_01       COST      68.71      IB_03_01   1.0
    X03_1_01       LC_01_01   0.1328     VUB_03_01_01 1.0
    X04_1_01       COST      36.28      IB_04_01   1.0
    X04_1_01       LC_01_01   0.1298     VUB_04_01_01 1.0
    X05_1_01       COST      43.44      IB_05_01   1.0
    X05_1_01       LC_01_01   0.1331     VUB_05_01_01 1.0
    X00_2_01       COST      41.85      IB_00_01   1.0
    X00_2_01       LC_02_01   0.1413     VUB_00_02_01 1.0
    X01_2_01       COST      50.18      IB_01_01   1.0
    X01_2_01       LC_02_01   0.2015     VUB_01_02_01 1.0
    X02_2_01       COST      57.28      IB_02_01   1.0
    X02_2_01       LC_02_01   0.1633     VUB_02_02_01 1.0
    X03_2_01       COST      66.04      IB_03_01   1.0
    X03_2_01       LC_02_01   0.1758     VUB_03_02_01 1.0
    X04_2_01       COST      47.62      IB_04_01   1.0
    X04_2_01       LC_02_01   0.1975     VUB_04_02_01 1.0
    X05_2_01       COST      72.72      IB_05_01   1.0
    X05_2_01       LC_02_01   0.1884     VUB_05_02_01 1.0
    X00_0_02       COST      60.92      IB_00_02   1.0
    X00_0_02       LC_00_02   0.1959     VUB_00_00_02 1.0
    X01_0_02       COST      64.17      IB_01_02   1.0
    X01_0_02       LC_00_02   0.1335     VUB_01_00_02 1.0
    X02_0_02       COST      74.58      IB_02_02   1.0
    X02_0_02       LC_00_02   0.2338     VUB_02_00_02 1.0
    X03_0_02       COST      62.38      IB_03_02   1.0
    X03_0_02       LC_00_02   0.1045     VUB_03_00_02 1.0
    X04_0_02       COST      44.16      IB_04_02   1.0
    X04_0_02       LC_00_02   0.1040     VUB_04_00_02 1.0
    X05_0_02       COST      45.71      IB_05_02   1.0
    X05_0_02       LC_00_02   0.1817     VUB_05_00_02 1.0
    X00_1_02       COST      59.37      IB_00_02   1.0
    X00_1_02       LC_01_02   0.1038     VUB_00_01_02 1.0
    X01_1_02       COST      41.54      IB_01_02   1.0
    X01_1_02       LC_01_02   0.2105     VUB_01_01_02 1.0
    X02_1_02       COST      60.60      IB_02_02   1.0
    X02_1_02       LC_01_02   0.1130     VUB_02_01_02 1.0
    X03_1_02       COST      68.71      IB_03_02   1.0
    X03_1_02       LC_01_02   0.1328     VUB_03_01_02 1.0
    X04_1_02       COST      36.28      IB_04_02   1.0
    X04_1_02       LC_01_02   0.1298     VUB_04_01_02 1.0
    X05_1_02       COST      43.44      IB_05_02   1.0
    X05_1_02       LC_01_02   0.1331     VUB_05_01_02 1.0
    X00_2_02       COST      41.85      IB_00_02   1.0
    X00_2_02       LC_02_02   0.1413     VUB_00_02_02 1.0
    X01_2_02       COST      50.18      IB_01_02   1.0
    X01_2_02       LC_02_02   0.2015     VUB_01_02_02 1.0
    X02_2_02       COST      57.28      IB_02_02   1.0
    X02_2_02       LC_02_02   0.1633     VUB_02_02_02 1.0
    X03_2_02       COST      66.04      IB_03_02   1.0
    X03_2_02       LC_02_02   0.1758     VUB_03_02_02 1.0
    X04_2_02       COST      47.62      IB_04_02   1.0
    X04_2_02       LC_02_02   0.1975     VUB_04_02_02 1.0
    X05_2_02       COST      72.72      IB_05_02   1.0
    X05_2_02       LC_02_02   0.1884     VUB_05_02_02 1.0
    X00_0_03       COST      60.92      IB_00_03   1.0
    X00_0_03       LC_00_03   0.1959     VUB_00_00_03 1.0
    X01_0_03       COST      64.17      IB_01_03   1.0
    X01_0_03       LC_00_03   0.1335     VUB_01_00_03 1.0
    X02_0_03       COST      74.58      IB_02_03   1.0
    X02_0_03       LC_00_03   0.2338     VUB_02_00_03 1.0
    X03_0_03       COST      62.38      IB_03_03   1.0
    X03_0_03       LC_00_03   0.1045     VUB_03_00_03 1.0
    X04_0_03       COST      44.16      IB_04_03   1.0
    X04_0_03       LC_00_03   0.1040     VUB_04_00_03 1.0
    X05_0_03       COST      45.71      IB_05_03   1.0
    X05_0_03       LC_00_03   0.1817     VUB_05_00_03 1.0
    X00_1_03       COST      59.37      IB_00_03   1.0
    X00_1_03       LC_01_03   0.1038     VUB_00_01_03 1.0
    X01_1_03       COST      41.54      IB_01_03   1.0
    X01_1_03       LC_01_03   0.2105     VUB_01_01_03 1.0
    X02_1_03       COST      60.60      IB_02_03   1.0
    X02_1_03       LC_01_03   0.1130     VUB_02_01_03 1.0
    X03_1_03       COST      68.71      IB_03_03   1.0
    X03_1_03       LC_01_03   0.1328     VUB_03_01_03 1.0
    X04_1_03       COST      36.28      IB_04_03   1.0
    X04_1_03       LC_01_03   0.1298     VUB_04_01_03 1.0
    X05_1_03       COST      43.44      IB_05_03   1.0
    X05_1_03       LC_01_03   0.1331     VUB_05_01_03 1.0
    X00_2_03       COST      41.85      IB_00_03   1.0
    X00_2_03       LC_02_03   0.1413     VUB_00_02_03 1.0
    X01_2_03       COST      50.18      IB_01_03   1.0
    X01_2_03       LC_02_03   0.2015     VUB_01_02_03 1.0
    X02_2_03       COST      57.28      IB_02_03   1.0
    X02_2_03       LC_02_03   0.1633     VUB_02_02_03 1.0
    X03_2_03       COST      66.04      IB_03_03   1.0
    X03_2_03       LC_02_03   0.1758     VUB_03_02_03 1.0
    X04_2_03       COST      47.62      IB_04_03   1.0
    X04_2_03       LC_02_03   0.1975     VUB_04_02_03 1.0
    X05_2_03       COST      72.72      IB_05_03   1.0
    X05_2_03       LC_02_03   0.1884     VUB_05_02_03 1.0
    I00_00         COST      4.63       IB_00_00   -1.0
    I00_00         IB_00_01   1.0
    I00_01         COST      4.63       IB_00_01   -1.0
    I00_01         IB_00_02   1.0
    I00_02         COST      4.63       IB_00_02   -1.0
    I00_02         IB_00_03   1.0
    I00_03         COST      4.63       IB_00_03   -1.0
    I01_00         COST      2.94       IB_01_00   -1.0
    I01_00         IB_01_01   1.0
    I01_01         COST      2.94       IB_01_01   -1.0
    I01_01         IB_01_02   1.0
    I01_02         COST      2.94       IB_01_02   -1.0
    I01_02         IB_01_03   1.0
    I01_03         COST      2.94       IB_01_03   -1.0
    I02_00         COST      3.97       IB_02_00   -1.0
    I02_00         IB_02_01   1.0
    I02_01         COST      3.97       IB_02_01   -1.0
    I02_01         IB_02_02   1.0
    I02_02         COST      3.97       IB_02_02   -1.0
    I02_02         IB_02_03   1.0
    I02_03         COST      3.97       IB_02_03   -1.0
    I03_00         COST      3.19       IB_03_00   -1.0
    I03_00         IB_03_01   1.0
    I03_01         COST      3.19       IB_03_01   -1.0
    I03_01         IB_03_02   1.0
    I03_02         COST      3.19       IB_03_02   -1.0
    I03_02         IB_03_03   1.0
    I03_03         COST      3.19       IB_03_03   -1.0
    I04_00         COST      4.74       IB_04_00   -1.0
    I04_00         IB_04_01   1.0
    I04_01         COST      4.74       IB_04_01   -1.0
    I04_01         IB_04_02   1.0
    I04_02         COST      4.74       IB_04_02   -1.0
    I04_02         IB_04_03   1.0
    I04_03         COST      4.74       IB_04_03   -1.0
    I05_00         COST      3.38       IB_05_00   -1.0
    I05_00         IB_05_01   1.0
    I05_01         COST      3.38       IB_05_01   -1.0
    I05_01         IB_05_02   1.0
    I05_02         COST      3.38       IB_05_02   -1.0
    I05_02         IB_05_03   1.0
    I05_03         COST      3.38       IB_05_03   -1.0
RHS
    RHS1      IB_00_00       20.7391
    RHS1      IB_01_00       50.6578
    RHS1      IB_02_00       91.7983
    RHS1      IB_03_00       9.5431
    RHS1      IB_04_00       21.7357
    RHS1      IB_05_00       84.6433
    RHS1      LC_00_00       168.0000
    RHS1      SL_00_00       4.0000
    RHS1      LC_01_00       168.0000
    RHS1      SL_01_00       4.0000
    RHS1      LC_02_00       168.0000
    RHS1      SL_02_00       4.0000
    RHS1      IB_00_01       59.7302
    RHS1      IB_01_01       111.8258
    RHS1      IB_02_01       80.7621
    RHS1      IB_03_01       90.1957
    RHS1      IB_04_01       70.5295
    RHS1      IB_05_01       108.8624
    RHS1      LC_00_01       168.0000
    RHS1      SL_00_01       4.0000
    RHS1      LC_01_01       168.0000
    RHS1      SL_01_01       4.0000
    RHS1      LC_02_01       168.0000
    RHS1      SL_02_01       4.0000
    RHS1      IB_00_02       84.9095
    RHS1      IB_01_02       71.9520
    RHS1      IB_02_02       47.2728
    RHS1      IB_03_02       103.3663
    RHS1      IB_04_02       119.6897
    RHS1      IB_05_02       40.9185
    RHS1      LC_00_02       168.0000
    RHS1      SL_00_02       4.0000
    RHS1      LC_01_02       168.0000
    RHS1      SL_01_02       4.0000
    RHS1      LC_02_02       168.0000
    RHS1      SL_02_02       4.0000
    RHS1      IB_00_03       61.0193
    RHS1      IB_01_03       57.5457
    RHS1      IB_02_03       43.7693
    RHS1      IB_03_03       73.7728
    RHS1      IB_04_03       82.3291
    RHS1      IB_05_03       97.6577
    RHS1      LC_00_03       168.0000
    RHS1      SL_00_03       4.0000
    RHS1      LC_01_03       168.0000
    RHS1      SL_01_03       4.0000
    RHS1      LC_02_03       168.0000
    RHS1      SL_02_03       4.0000
BOUNDS
 BV BND       Y00_0_00
 BV BND       Y01_0_00
 BV BND       Y02_0_00
 BV BND       Y03_0_00
 BV BND       Y04_0_00
 BV BND       Y05_0_00
 BV BND       Y00_1_00
 BV BND       Y01_1_00
 BV BND       Y02_1_00
 BV BND       Y03_1_00
 BV BND       Y04_1_00
 BV BND       Y05_1_00
 BV BND       Y00_2_00
 BV BND       Y01_2_00
 BV BND       Y02_2_00
 BV BND       Y03_2_00
 BV BND       Y04_2_00
 BV BND       Y05_2_00
 BV BND       Y00_0_01
 BV BND       Y01_0_01
 BV BND       Y02_0_01
 BV BND       Y03_0_01
 BV BND       Y04_0_01
 BV BND       Y05_0_01
 BV BND       Y00_1_01
 BV BND       Y01_1_01
 BV BND       Y02_1_01
 BV BND       Y03_1_01
 BV BND       Y04_1_01
 BV BND       Y05_1_01
 BV BND       Y00_2_01
 BV BND       Y01_2_01
 BV BND       Y02_2_01
 BV BND       Y03_2_01
 BV BND       Y04_2_01
 BV BND       Y05_2_01
 BV BND       Y00_0_02
 BV BND       Y01_0_02
 BV BND       Y02_0_02
 BV BND       Y03_0_02
 BV BND       Y04_0_02
 BV BND       Y05_0_02
 BV BND       Y00_1_02
 BV BND       Y01_1_02
 BV BND       Y02_1_02
 BV BND       Y03_1_02
 BV BND       Y04_1_02
 BV BND       Y05_1_02
 BV BND       Y00_2_02
 BV BND       Y01_2_02
 BV BND       Y02_2_02
 BV BND       Y03_2_02
 BV BND       Y04_2_02
 BV BND       Y05_2_02
 BV BND       Y00_0_03
 BV BND       Y01_0_03
 BV BND       Y02_0_03
 BV BND       Y03_0_03
 BV BND       Y04_0_03
 BV BND       Y05_0_03
 BV BND       Y00_1_03
 BV BND       Y01_1_03
 BV BND       Y02_1_03
 BV BND       Y03_1_03
 BV BND       Y04_1_03
 BV BND       Y05_1_03
 BV BND       Y00_2_03
 BV BND       Y01_2_03
 BV BND       Y02_2_03
 BV BND       Y03_2_03
 BV BND       Y04_2_03
 BV BND       Y05_2_03
 UP BND       X00_0_00       821.55
 UP BND       X01_0_00       1209.97
 UP BND       X02_0_00       685.18
 UP BND       X03_0_00       1574.78
 UP BND       X04_0_00       1548.03
 UP BND       X05_0_00       881.11
 UP BND       X00_1_00       1590.02
 UP BND       X01_1_00       775.87
 UP BND       X02_1_00       1444.76
 UP BND       X03_1_00       1210.60
 UP BND       X04_1_00       1242.83
 UP BND       X05_1_00       1225.76
 UP BND       X00_2_00       1139.58
 UP BND       X01_2_00       814.98
 UP BND       X02_2_00       1007.64
 UP BND       X03_2_00       921.38
 UP BND       X04_2_00       821.94
 UP BND       X05_2_00       861.19
 UP BND       X00_0_01       821.55
 UP BND       X01_0_01       1209.97
 UP BND       X02_0_01       685.18
 UP BND       X03_0_01       1574.78
 UP BND       X04_0_01       1548.03
 UP BND       X05_0_01       881.11
 UP BND       X00_1_01       1590.02
 UP BND       X01_1_01       775.87
 UP BND       X02_1_01       1444.76
 UP BND       X03_1_01       1210.60
 UP BND       X04_1_01       1242.83
 UP BND       X05_1_01       1225.76
 UP BND       X00_2_01       1139.58
 UP BND       X01_2_01       814.98
 UP BND       X02_2_01       1007.64
 UP BND       X03_2_01       921.38
 UP BND       X04_2_01       821.94
 UP BND       X05_2_01       861.19
 UP BND       X00_0_02       821.55
 UP BND       X01_0_02       1209.97
 UP BND       X02_0_02       685.18
 UP BND       X03_0_02       1574.78
 UP BND       X04_0_02       1548.03
 UP BND       X05_0_02       881.11
 UP BND       X00_1_02       1590.02
 UP BND       X01_1_02       775.87
 UP BND       X02_1_02       1444.76
 UP BND       X03_1_02       1210.60
 UP BND       X04_1_02       1242.83
 UP BND       X05_1_02       1225.76
 UP BND       X00_2_02       1139.58
 UP BND       X01_2_02       814.98
 UP BND       X02_2_02       1007.64
 UP BND       X03_2_02       921.38
 UP BND       X04_2_02       821.94
 UP BND       X05_2_02       861.19
 UP BND       X00_0_03       821.55
 UP BND       X01_0_03       1209.97
 UP BND       X02_0_03       685.18
 UP BND       X03_0_03       1574.78
 UP BND       X04_0_03       1548.03
 UP BND       X05_0_03       881.11
 UP BND       X00_1_03       1590.02
 UP BND       X01_1_03       775.87
 UP BND       X02_1_03       1444.76
 UP BND       X03_1_03       1210.60
 UP BND       X04_1_03       1242.83
 UP BND       X05_1_03       1225.76
 UP BND       X00_2_03       1139.58
 UP BND       X01_2_03       814.98
 UP BND       X02_2_03       1007.64
 UP BND       X03_2_03       921.38
 UP BND       X04_2_03       821.94
 UP BND       X05_2_03       861.19
 LO BND       I00_00         19.07
 UP BND       I00_00         2000.0
 LO BND       I00_01         19.07
 UP BND       I00_01         2000.0
 LO BND       I00_02         19.07
 UP BND       I00_02         2000.0
 LO BND       I00_03         19.07
 UP BND       I00_03         2000.0
 LO BND       I01_00         29.08
 UP BND       I01_00         2000.0
 LO BND       I01_01         29.08
 UP BND       I01_01         2000.0
 LO BND       I01_02         29.08
 UP BND       I01_02         2000.0
 LO BND       I01_03         29.08
 UP BND       I01_03         2000.0
 LO BND       I02_00         27.52
 UP BND       I02_00         2000.0
 LO BND       I02_01         27.52
 UP BND       I02_01         2000.0
 LO BND       I02_02         27.52
 UP BND       I02_02         2000.0
 LO BND       I02_03         27.52
 UP BND       I02_03         2000.0
 LO BND       I03_00         15.27
 UP BND       I03_00         2000.0
 LO BND       I03_01         15.27
 UP BND       I03_01         2000.0
 LO BND       I03_02         15.27
 UP BND       I03_02         2000.0
 LO BND       I03_03         15.27
 UP BND       I03_03         2000.0
 LO BND       I04_00         20.01
 UP BND       I04_00         2000.0
 LO BND       I04_01         20.01
 UP BND       I04_01         2000.0
 LO BND       I04_02         20.01
 UP BND       I04_02         2000.0
 LO BND       I04_03         20.01
 UP BND       I04_03         2000.0
 LO BND       I05_00         13.57
 UP BND       I05_00         2000.0
 LO BND       I05_01         13.57
 UP BND       I05_01         2000.0
 LO BND       I05_02         13.57
 UP BND       I05_02         2000.0
 LO BND       I05_03         13.57
 UP BND       I05_03         2000.0
ENDATA
