* Units: QU/CG/PR rate flows kbpd; INV tank stock kb; time step 1 day, so rate x step
* converts to kb in INV_BAL rows. Capacity/demand RHS kbpd; berth indicators counts.
* COST: rate coefficients USD/bbl -> kUSD/day; inventory 0.25 kUSD/kb/day; berth 150
* kUSD/day per active binary. Numeric objective is kUSD/day under these conventions.
* Synthetic qualification data; not plant operating data; deterministic for a fixed seed.
NAME REFINERY_SCHEDULING_LARGE
ROWS
 N COST
 E INV_BAL_0_0
 E INV_BAL_0_1
 E INV_BAL_0_2
 E INV_BAL_0_3
 E INV_BAL_0_4
 E INV_BAL_0_5
 E INV_BAL_0_6
 E INV_BAL_1_0
 E INV_BAL_1_1
 E INV_BAL_1_2
 E INV_BAL_1_3
 E INV_BAL_1_4
 E INV_BAL_1_5
 E INV_BAL_1_6
 E INV_BAL_2_0
 E INV_BAL_2_1
 E INV_BAL_2_2
 E INV_BAL_2_3
 E INV_BAL_2_4
 E INV_BAL_2_5
 E INV_BAL_2_6
 E INV_BAL_3_0
 E INV_BAL_3_1
 E INV_BAL_3_2
 E INV_BAL_3_3
 E INV_BAL_3_4
 E INV_BAL_3_5
 E INV_BAL_3_6
 E INV_BAL_4_0
 E INV_BAL_4_1
 E INV_BAL_4_2
 E INV_BAL_4_3
 E INV_BAL_4_4
 E INV_BAL_4_5
 E INV_BAL_4_6
 E INV_BAL_5_0
 E INV_BAL_5_1
 E INV_BAL_5_2
 E INV_BAL_5_3
 E INV_BAL_5_4
 E INV_BAL_5_5
 E INV_BAL_5_6
 E INV_BAL_6_0
 E INV_BAL_6_1
 E INV_BAL_6_2
 E INV_BAL_6_3
 E INV_BAL_6_4
 E INV_BAL_6_5
 E INV_BAL_6_6
 E INV_BAL_7_0
 E INV_BAL_7_1
 E INV_BAL_7_2
 E INV_BAL_7_3
 E INV_BAL_7_4
 E INV_BAL_7_5
 E INV_BAL_7_6
 E INV_BAL_8_0
 E INV_BAL_8_1
 E INV_BAL_8_2
 E INV_BAL_8_3
 E INV_BAL_8_4
 E INV_BAL_8_5
 E INV_BAL_8_6
 E INV_BAL_9_0
 E INV_BAL_9_1
 E INV_BAL_9_2
 E INV_BAL_9_3
 E INV_BAL_9_4
 E INV_BAL_9_5
 E INV_BAL_9_6
 E INV_BAL_10_0
 E INV_BAL_10_1
 E INV_BAL_10_2
 E INV_BAL_10_3
 E INV_BAL_10_4
 E INV_BAL_10_5
 E INV_BAL_10_6
 E INV_BAL_11_0
 E INV_BAL_11_1
 E INV_BAL_11_2
 E INV_BAL_11_3
 E INV_BAL_11_4
 E INV_BAL_11_5
 E INV_BAL_11_6
 L CDU_CAP_0_0
 L CDU_CAP_0_1
 L CDU_CAP_0_2
 L CDU_CAP_0_3
 L CDU_CAP_0_4
 L CDU_CAP_0_5
 L CDU_CAP_0_6
 L CDU_CAP_1_0
 L CDU_CAP_1_1
 L CDU_CAP_1_2
 L CDU_CAP_1_3
 L CDU_CAP_1_4
 L CDU_CAP_1_5
 L CDU_CAP_1_6
 L CDU_CAP_2_0
 L CDU_CAP_2_1
 L CDU_CAP_2_2
 L CDU_CAP_2_3
 L CDU_CAP_2_4
 L CDU_CAP_2_5
 L CDU_CAP_2_6
 E PROD_YIELD_NAPH_0
 E PROD_YIELD_NAPH_1
 E PROD_YIELD_NAPH_2
 E PROD_YIELD_NAPH_3
 E PROD_YIELD_NAPH_4
 E PROD_YIELD_NAPH_5
 E PROD_YIELD_NAPH_6
 E PROD_YIELD_KERO_0
 E PROD_YIELD_KERO_1
 E PROD_YIELD_KERO_2
 E PROD_YIELD_KERO_3
 E PROD_YIELD_KERO_4
 E PROD_YIELD_KERO_5
 E PROD_YIELD_KERO_6
 E PROD_YIELD_GASOIL_0
 E PROD_YIELD_GASOIL_1
 E PROD_YIELD_GASOIL_2
 E PROD_YIELD_GASOIL_3
 E PROD_YIELD_GASOIL_4
 E PROD_YIELD_GASOIL_5
 E PROD_YIELD_GASOIL_6
 E PROD_YIELD_VGO_0
 E PROD_YIELD_VGO_1
 E PROD_YIELD_VGO_2
 E PROD_YIELD_VGO_3
 E PROD_YIELD_VGO_4
 E PROD_YIELD_VGO_5
 E PROD_YIELD_VGO_6
 E PROD_YIELD_RESID_0
 E PROD_YIELD_RESID_1
 E PROD_YIELD_RESID_2
 E PROD_YIELD_RESID_3
 E PROD_YIELD_RESID_4
 E PROD_YIELD_RESID_5
 E PROD_YIELD_RESID_6
 G PROD_DEM_NAPH_0
 G PROD_DEM_NAPH_1
 G PROD_DEM_NAPH_2
 G PROD_DEM_NAPH_3
 G PROD_DEM_NAPH_4
 G PROD_DEM_NAPH_5
 G PROD_DEM_NAPH_6
 G PROD_DEM_KERO_0
 G PROD_DEM_KERO_1
 G PROD_DEM_KERO_2
 G PROD_DEM_KERO_3
 G PROD_DEM_KERO_4
 G PROD_DEM_KERO_5
 G PROD_DEM_KERO_6
 G PROD_DEM_GASOIL_0
 G PROD_DEM_GASOIL_1
 G PROD_DEM_GASOIL_2
 G PROD_DEM_GASOIL_3
 G PROD_DEM_GASOIL_4
 G PROD_DEM_GASOIL_5
 G PROD_DEM_GASOIL_6
 G PROD_DEM_VGO_0
 G PROD_DEM_VGO_1
 G PROD_DEM_VGO_2
 G PROD_DEM_VGO_3
 G PROD_DEM_VGO_4
 G PROD_DEM_VGO_5
 G PROD_DEM_VGO_6
 G PROD_DEM_RESID_0
 G PROD_DEM_RESID_1
 G PROD_DEM_RESID_2
 G PROD_DEM_RESID_3
 G PROD_DEM_RESID_4
 G PROD_DEM_RESID_5
 G PROD_DEM_RESID_6
 L BERTH_EXCL_0_0
 L BERTH_EXCL_0_1
 L BERTH_EXCL_0_2
 L BERTH_EXCL_0_3
 L BERTH_EXCL_0_4
 L BERTH_EXCL_0_5
 L BERTH_EXCL_0_6
 L BERTH_EXCL_1_0
 L BERTH_EXCL_1_1
 L BERTH_EXCL_1_2
 L BERTH_EXCL_1_3
 L BERTH_EXCL_1_4
 L BERTH_EXCL_1_5
 L BERTH_EXCL_1_6
 L BERTH_EXCL_2_0
 L BERTH_EXCL_2_1
 L BERTH_EXCL_2_2
 L BERTH_EXCL_2_3
 L BERTH_EXCL_2_4
 L BERTH_EXCL_2_5
 L BERTH_EXCL_2_6
 L BERTH_EXCL_3_0
 L BERTH_EXCL_3_1
 L BERTH_EXCL_3_2
 L BERTH_EXCL_3_3
 L BERTH_EXCL_3_4
 L BERTH_EXCL_3_5
 L BERTH_EXCL_3_6
 L UNLD_MAX_ARABLGT_0_0
 L UNLD_MAX_ARABLGT_0_1
 L UNLD_MAX_ARABLGT_0_2
 L UNLD_MAX_ARABLGT_0_3
 L UNLD_MAX_ARABLGT_0_4
 L UNLD_MAX_ARABLGT_0_5
 L UNLD_MAX_ARABLGT_0_6
 L UNLD_MAX_ARABHVY_1_0
 L UNLD_MAX_ARABHVY_1_1
 L UNLD_MAX_ARABHVY_1_2
 L UNLD_MAX_ARABHVY_1_3
 L UNLD_MAX_ARABHVY_1_4
 L UNLD_MAX_ARABHVY_1_5
 L UNLD_MAX_ARABHVY_1_6
 L UNLD_MAX_BASRAH_2_0
 L UNLD_MAX_BASRAH_2_1
 L UNLD_MAX_BASRAH_2_2
 L UNLD_MAX_BASRAH_2_3
 L UNLD_MAX_BASRAH_2_4
 L UNLD_MAX_BASRAH_2_5
 L UNLD_MAX_BASRAH_2_6
 L UNLD_MAX_MAYA_3_0
 L UNLD_MAX_MAYA_3_1
 L UNLD_MAX_MAYA_3_2
 L UNLD_MAX_MAYA_3_3
 L UNLD_MAX_MAYA_3_4
 L UNLD_MAX_MAYA_3_5
 L UNLD_MAX_MAYA_3_6
 L UNLD_MAX_BONNY_0_0
 L UNLD_MAX_BONNY_0_1
 L UNLD_MAX_BONNY_0_2
 L UNLD_MAX_BONNY_0_3
 L UNLD_MAX_BONNY_0_4
 L UNLD_MAX_BONNY_0_5
 L UNLD_MAX_BONNY_0_6
 L UNLD_MAX_MUMBAI_1_0
 L UNLD_MAX_MUMBAI_1_1
 L UNLD_MAX_MUMBAI_1_2
 L UNLD_MAX_MUMBAI_1_3
 L UNLD_MAX_MUMBAI_1_4
 L UNLD_MAX_MUMBAI_1_5
 L UNLD_MAX_MUMBAI_1_6
 L UNLD_MAX_KUWAIT_2_0
 L UNLD_MAX_KUWAIT_2_1
 L UNLD_MAX_KUWAIT_2_2
 L UNLD_MAX_KUWAIT_2_3
 L UNLD_MAX_KUWAIT_2_4
 L UNLD_MAX_KUWAIT_2_5
 L UNLD_MAX_KUWAIT_2_6
 L UNLD_MAX_MURBAN_3_0
 L UNLD_MAX_MURBAN_3_1
 L UNLD_MAX_MURBAN_3_2
 L UNLD_MAX_MURBAN_3_3
 L UNLD_MAX_MURBAN_3_4
 L UNLD_MAX_MURBAN_3_5
 L UNLD_MAX_MURBAN_3_6
 L UNLD_MAX_SOKOL_0_0
 L UNLD_MAX_SOKOL_0_1
 L UNLD_MAX_SOKOL_0_2
 L UNLD_MAX_SOKOL_0_3
 L UNLD_MAX_SOKOL_0_4
 L UNLD_MAX_SOKOL_0_5
 L UNLD_MAX_SOKOL_0_6
 L UNLD_MAX_SVERDRP_1_0
 L UNLD_MAX_SVERDRP_1_1
 L UNLD_MAX_SVERDRP_1_2
 L UNLD_MAX_SVERDRP_1_3
 L UNLD_MAX_SVERDRP_1_4
 L UNLD_MAX_SVERDRP_1_5
 L UNLD_MAX_SVERDRP_1_6
 L TANKER_WIN_ARABLGT_0
 L TANKER_WIN_ARABLGT_1
 L TANKER_WIN_ARABLGT_2
 L TANKER_WIN_ARABLGT_3
 L TANKER_WIN_ARABLGT_4
 L TANKER_WIN_ARABLGT_5
 L TANKER_WIN_ARABLGT_6
 L TANKER_WIN_ARABHVY_0
 L TANKER_WIN_ARABHVY_1
 L TANKER_WIN_ARABHVY_2
 L TANKER_WIN_ARABHVY_3
 L TANKER_WIN_ARABHVY_4
 L TANKER_WIN_ARABHVY_5
 L TANKER_WIN_ARABHVY_6
 L TANKER_WIN_BASRAH_0
 L TANKER_WIN_BASRAH_1
 L TANKER_WIN_BASRAH_2
 L TANKER_WIN_BASRAH_3
 L TANKER_WIN_BASRAH_4
 L TANKER_WIN_BASRAH_5
 L TANKER_WIN_BASRAH_6
 L TANKER_WIN_MAYA_0
 L TANKER_WIN_MAYA_1
 L TANKER_WIN_MAYA_2
 L TANKER_WIN_MAYA_3
 L TANKER_WIN_MAYA_4
 L TANKER_WIN_MAYA_5
 L TANKER_WIN_MAYA_6
 L TANKER_WIN_BONNY_0
 L TANKER_WIN_BONNY_1
 L TANKER_WIN_BONNY_2
 L TANKER_WIN_BONNY_3
 L TANKER_WIN_BONNY_4
 L TANKER_WIN_BONNY_5
 L TANKER_WIN_BONNY_6
 L TANKER_WIN_MUMBAI_0
 L TANKER_WIN_MUMBAI_1
 L TANKER_WIN_MUMBAI_2
 L TANKER_WIN_MUMBAI_3
 L TANKER_WIN_MUMBAI_4
 L TANKER_WIN_MUMBAI_5
 L TANKER_WIN_MUMBAI_6
 L TANKER_WIN_KUWAIT_0
 L TANKER_WIN_KUWAIT_1
 L TANKER_WIN_KUWAIT_2
 L TANKER_WIN_KUWAIT_3
 L TANKER_WIN_KUWAIT_4
 L TANKER_WIN_KUWAIT_5
 L TANKER_WIN_KUWAIT_6
 L TANKER_WIN_MURBAN_0
 L TANKER_WIN_MURBAN_1
 L TANKER_WIN_MURBAN_2
 L TANKER_WIN_MURBAN_3
 L TANKER_WIN_MURBAN_4
 L TANKER_WIN_MURBAN_5
 L TANKER_WIN_MURBAN_6
 L TANKER_WIN_SOKOL_0
 L TANKER_WIN_SOKOL_1
 L TANKER_WIN_SOKOL_2
 L TANKER_WIN_SOKOL_3
 L TANKER_WIN_SOKOL_4
 L TANKER_WIN_SOKOL_5
 L TANKER_WIN_SOKOL_6
 L TANKER_WIN_SVERDRP_0
 L TANKER_WIN_SVERDRP_1
 L TANKER_WIN_SVERDRP_2
 L TANKER_WIN_SVERDRP_3
 L TANKER_WIN_SVERDRP_4
 L TANKER_WIN_SVERDRP_5
 L TANKER_WIN_SVERDRP_6
COLUMNS
    MARK0000  'MARKER'                 'INTORG'
    YB_ARAB_0_0 COST      150.0     BERTH_EXCL_0_0 1.0
    YB_ARAB_0_0 UNLD_MAX_ARABLGT_0_0 -80.0 TANKER_WIN_ARABLGT_0 1.0
    YB_ARAB_0_1 COST      150.0     BERTH_EXCL_0_1 1.0
    YB_ARAB_0_1 UNLD_MAX_ARABLGT_0_1 -80.0 TANKER_WIN_ARABLGT_1 1.0
    YB_ARAB_0_2 COST      150.0     BERTH_EXCL_0_2 1.0
    YB_ARAB_0_2 UNLD_MAX_ARABLGT_0_2 -80.0 TANKER_WIN_ARABLGT_2 1.0
    YB_ARAB_0_3 COST      150.0     BERTH_EXCL_0_3 1.0
    YB_ARAB_0_3 UNLD_MAX_ARABLGT_0_3 -80.0 TANKER_WIN_ARABLGT_3 1.0
    YB_ARAB_0_4 COST      150.0     BERTH_EXCL_0_4 1.0
    YB_ARAB_0_4 UNLD_MAX_ARABLGT_0_4 -80.0 TANKER_WIN_ARABLGT_4 1.0
    YB_ARAB_0_5 COST      150.0     BERTH_EXCL_0_5 1.0
    YB_ARAB_0_5 UNLD_MAX_ARABLGT_0_5 -80.0 TANKER_WIN_ARABLGT_5 1.0
    YB_ARAB_0_6 COST      150.0     BERTH_EXCL_0_6 1.0
    YB_ARAB_0_6 UNLD_MAX_ARABLGT_0_6 -80.0 TANKER_WIN_ARABLGT_6 1.0
    YB_ARAB_1_0 COST      150.0     BERTH_EXCL_1_0 1.0
    YB_ARAB_1_0 UNLD_MAX_ARABHVY_1_0 -80.0 TANKER_WIN_ARABHVY_0 1.0
    YB_ARAB_1_1 COST      150.0     BERTH_EXCL_1_1 1.0
    YB_ARAB_1_1 UNLD_MAX_ARABHVY_1_1 -80.0 TANKER_WIN_ARABHVY_1 1.0
    YB_ARAB_1_2 COST      150.0     BERTH_EXCL_1_2 1.0
    YB_ARAB_1_2 UNLD_MAX_ARABHVY_1_2 -80.0 TANKER_WIN_ARABHVY_2 1.0
    YB_ARAB_1_3 COST      150.0     BERTH_EXCL_1_3 1.0
    YB_ARAB_1_3 UNLD_MAX_ARABHVY_1_3 -80.0 TANKER_WIN_ARABHVY_3 1.0
    YB_ARAB_1_4 COST      150.0     BERTH_EXCL_1_4 1.0
    YB_ARAB_1_4 UNLD_MAX_ARABHVY_1_4 -80.0 TANKER_WIN_ARABHVY_4 1.0
    YB_ARAB_1_5 COST      150.0     BERTH_EXCL_1_5 1.0
    YB_ARAB_1_5 UNLD_MAX_ARABHVY_1_5 -80.0 TANKER_WIN_ARABHVY_5 1.0
    YB_ARAB_1_6 COST      150.0     BERTH_EXCL_1_6 1.0
    YB_ARAB_1_6 UNLD_MAX_ARABHVY_1_6 -80.0 TANKER_WIN_ARABHVY_6 1.0
    YB_BASR_2_0 COST      150.0     BERTH_EXCL_2_0 1.0
    YB_BASR_2_0 UNLD_MAX_BASRAH_2_0 -80.0 TANKER_WIN_BASRAH_0 1.0
    YB_BASR_2_1 COST      150.0     BERTH_EXCL_2_1 1.0
    YB_BASR_2_1 UNLD_MAX_BASRAH_2_1 -80.0 TANKER_WIN_BASRAH_1 1.0
    YB_BASR_2_2 COST      150.0     BERTH_EXCL_2_2 1.0
    YB_BASR_2_2 UNLD_MAX_BASRAH_2_2 -80.0 TANKER_WIN_BASRAH_2 1.0
    YB_BASR_2_3 COST      150.0     BERTH_EXCL_2_3 1.0
    YB_BASR_2_3 UNLD_MAX_BASRAH_2_3 -80.0 TANKER_WIN_BASRAH_3 1.0
    YB_BASR_2_4 COST      150.0     BERTH_EXCL_2_4 1.0
    YB_BASR_2_4 UNLD_MAX_BASRAH_2_4 -80.0 TANKER_WIN_BASRAH_4 1.0
    YB_BASR_2_5 COST      150.0     BERTH_EXCL_2_5 1.0
    YB_BASR_2_5 UNLD_MAX_BASRAH_2_5 -80.0 TANKER_WIN_BASRAH_5 1.0
    YB_BASR_2_6 COST      150.0     BERTH_EXCL_2_6 1.0
    YB_BASR_2_6 UNLD_MAX_BASRAH_2_6 -80.0 TANKER_WIN_BASRAH_6 1.0
    YB_MAYA_3_0 COST      150.0     BERTH_EXCL_3_0 1.0
    YB_MAYA_3_0 UNLD_MAX_MAYA_3_0 -80.0 TANKER_WIN_MAYA_0 1.0
    YB_MAYA_3_1 COST      150.0     BERTH_EXCL_3_1 1.0
    YB_MAYA_3_1 UNLD_MAX_MAYA_3_1 -80.0 TANKER_WIN_MAYA_1 1.0
    YB_MAYA_3_2 COST      150.0     BERTH_EXCL_3_2 1.0
    YB_MAYA_3_2 UNLD_MAX_MAYA_3_2 -80.0 TANKER_WIN_MAYA_2 1.0
    YB_MAYA_3_3 COST      150.0     BERTH_EXCL_3_3 1.0
    YB_MAYA_3_3 UNLD_MAX_MAYA_3_3 -80.0 TANKER_WIN_MAYA_3 1.0
    YB_MAYA_3_4 COST      150.0     BERTH_EXCL_3_4 1.0
    YB_MAYA_3_4 UNLD_MAX_MAYA_3_4 -80.0 TANKER_WIN_MAYA_4 1.0
    YB_MAYA_3_5 COST      150.0     BERTH_EXCL_3_5 1.0
    YB_MAYA_3_5 UNLD_MAX_MAYA_3_5 -80.0 TANKER_WIN_MAYA_5 1.0
    YB_MAYA_3_6 COST      150.0     BERTH_EXCL_3_6 1.0
    YB_MAYA_3_6 UNLD_MAX_MAYA_3_6 -80.0 TANKER_WIN_MAYA_6 1.0
    YB_BONN_0_0 COST      150.0     BERTH_EXCL_0_0 1.0
    YB_BONN_0_0 UNLD_MAX_BONNY_0_0 -80.0 TANKER_WIN_BONNY_0 1.0
    YB_BONN_0_1 COST      150.0     BERTH_EXCL_0_1 1.0
    YB_BONN_0_1 UNLD_MAX_BONNY_0_1 -80.0 TANKER_WIN_BONNY_1 1.0
    YB_BONN_0_2 COST      150.0     BERTH_EXCL_0_2 1.0
    YB_BONN_0_2 UNLD_MAX_BONNY_0_2 -80.0 TANKER_WIN_BONNY_2 1.0
    YB_BONN_0_3 COST      150.0     BERTH_EXCL_0_3 1.0
    YB_BONN_0_3 UNLD_MAX_BONNY_0_3 -80.0 TANKER_WIN_BONNY_3 1.0
    YB_BONN_0_4 COST      150.0     BERTH_EXCL_0_4 1.0
    YB_BONN_0_4 UNLD_MAX_BONNY_0_4 -80.0 TANKER_WIN_BONNY_4 1.0
    YB_BONN_0_5 COST      150.0     BERTH_EXCL_0_5 1.0
    YB_BONN_0_5 UNLD_MAX_BONNY_0_5 -80.0 TANKER_WIN_BONNY_5 1.0
    YB_BONN_0_6 COST      150.0     BERTH_EXCL_0_6 1.0
    YB_BONN_0_6 UNLD_MAX_BONNY_0_6 -80.0 TANKER_WIN_BONNY_6 1.0
    YB_MUMB_1_0 COST      150.0     BERTH_EXCL_1_0 1.0
    YB_MUMB_1_0 UNLD_MAX_MUMBAI_1_0 -80.0 TANKER_WIN_MUMBAI_0 1.0
    YB_MUMB_1_1 COST      150.0     BERTH_EXCL_1_1 1.0
    YB_MUMB_1_1 UNLD_MAX_MUMBAI_1_1 -80.0 TANKER_WIN_MUMBAI_1 1.0
    YB_MUMB_1_2 COST      150.0     BERTH_EXCL_1_2 1.0
    YB_MUMB_1_2 UNLD_MAX_MUMBAI_1_2 -80.0 TANKER_WIN_MUMBAI_2 1.0
    YB_MUMB_1_3 COST      150.0     BERTH_EXCL_1_3 1.0
    YB_MUMB_1_3 UNLD_MAX_MUMBAI_1_3 -80.0 TANKER_WIN_MUMBAI_3 1.0
    YB_MUMB_1_4 COST      150.0     BERTH_EXCL_1_4 1.0
    YB_MUMB_1_4 UNLD_MAX_MUMBAI_1_4 -80.0 TANKER_WIN_MUMBAI_4 1.0
    YB_MUMB_1_5 COST      150.0     BERTH_EXCL_1_5 1.0
    YB_MUMB_1_5 UNLD_MAX_MUMBAI_1_5 -80.0 TANKER_WIN_MUMBAI_5 1.0
    YB_MUMB_1_6 COST      150.0     BERTH_EXCL_1_6 1.0
    YB_MUMB_1_6 UNLD_MAX_MUMBAI_1_6 -80.0 TANKER_WIN_MUMBAI_6 1.0
    YB_KUWA_2_0 COST      150.0     BERTH_EXCL_2_0 1.0
    YB_KUWA_2_0 UNLD_MAX_KUWAIT_2_0 -80.0 TANKER_WIN_KUWAIT_0 1.0
    YB_KUWA_2_1 COST      150.0     BERTH_EXCL_2_1 1.0
    YB_KUWA_2_1 UNLD_MAX_KUWAIT_2_1 -80.0 TANKER_WIN_KUWAIT_1 1.0
    YB_KUWA_2_2 COST      150.0     BERTH_EXCL_2_2 1.0
    YB_KUWA_2_2 UNLD_MAX_KUWAIT_2_2 -80.0 TANKER_WIN_KUWAIT_2 1.0
    YB_KUWA_2_3 COST      150.0     BERTH_EXCL_2_3 1.0
    YB_KUWA_2_3 UNLD_MAX_KUWAIT_2_3 -80.0 TANKER_WIN_KUWAIT_3 1.0
    YB_KUWA_2_4 COST      150.0     BERTH_EXCL_2_4 1.0
    YB_KUWA_2_4 UNLD_MAX_KUWAIT_2_4 -80.0 TANKER_WIN_KUWAIT_4 1.0
    YB_KUWA_2_5 COST      150.0     BERTH_EXCL_2_5 1.0
    YB_KUWA_2_5 UNLD_MAX_KUWAIT_2_5 -80.0 TANKER_WIN_KUWAIT_5 1.0
    YB_KUWA_2_6 COST      150.0     BERTH_EXCL_2_6 1.0
    YB_KUWA_2_6 UNLD_MAX_KUWAIT_2_6 -80.0 TANKER_WIN_KUWAIT_6 1.0
    YB_MURB_3_0 COST      150.0     BERTH_EXCL_3_0 1.0
    YB_MURB_3_0 UNLD_MAX_MURBAN_3_0 -80.0 TANKER_WIN_MURBAN_0 1.0
    YB_MURB_3_1 COST      150.0     BERTH_EXCL_3_1 1.0
    YB_MURB_3_1 UNLD_MAX_MURBAN_3_1 -80.0 TANKER_WIN_MURBAN_1 1.0
    YB_MURB_3_2 COST      150.0     BERTH_EXCL_3_2 1.0
    YB_MURB_3_2 UNLD_MAX_MURBAN_3_2 -80.0 TANKER_WIN_MURBAN_2 1.0
    YB_MURB_3_3 COST      150.0     BERTH_EXCL_3_3 1.0
    YB_MURB_3_3 UNLD_MAX_MURBAN_3_3 -80.0 TANKER_WIN_MURBAN_3 1.0
    YB_MURB_3_4 COST      150.0     BERTH_EXCL_3_4 1.0
    YB_MURB_3_4 UNLD_MAX_MURBAN_3_4 -80.0 TANKER_WIN_MURBAN_4 1.0
    YB_MURB_3_5 COST      150.0     BERTH_EXCL_3_5 1.0
    YB_MURB_3_5 UNLD_MAX_MURBAN_3_5 -80.0 TANKER_WIN_MURBAN_5 1.0
    YB_MURB_3_6 COST      150.0     BERTH_EXCL_3_6 1.0
    YB_MURB_3_6 UNLD_MAX_MURBAN_3_6 -80.0 TANKER_WIN_MURBAN_6 1.0
    YB_SOKO_0_0 COST      150.0     BERTH_EXCL_0_0 1.0
    YB_SOKO_0_0 UNLD_MAX_SOKOL_0_0 -80.0 TANKER_WIN_SOKOL_0 1.0
    YB_SOKO_0_1 COST      150.0     BERTH_EXCL_0_1 1.0
    YB_SOKO_0_1 UNLD_MAX_SOKOL_0_1 -80.0 TANKER_WIN_SOKOL_1 1.0
    YB_SOKO_0_2 COST      150.0     BERTH_EXCL_0_2 1.0
    YB_SOKO_0_2 UNLD_MAX_SOKOL_0_2 -80.0 TANKER_WIN_SOKOL_2 1.0
    YB_SOKO_0_3 COST      150.0     BERTH_EXCL_0_3 1.0
    YB_SOKO_0_3 UNLD_MAX_SOKOL_0_3 -80.0 TANKER_WIN_SOKOL_3 1.0
    YB_SOKO_0_4 COST      150.0     BERTH_EXCL_0_4 1.0
    YB_SOKO_0_4 UNLD_MAX_SOKOL_0_4 -80.0 TANKER_WIN_SOKOL_4 1.0
    YB_SOKO_0_5 COST      150.0     BERTH_EXCL_0_5 1.0
    YB_SOKO_0_5 UNLD_MAX_SOKOL_0_5 -80.0 TANKER_WIN_SOKOL_5 1.0
    YB_SOKO_0_6 COST      150.0     BERTH_EXCL_0_6 1.0
    YB_SOKO_0_6 UNLD_MAX_SOKOL_0_6 -80.0 TANKER_WIN_SOKOL_6 1.0
    YB_SVER_1_0 COST      150.0     BERTH_EXCL_1_0 1.0
    YB_SVER_1_0 UNLD_MAX_SVERDRP_1_0 -80.0 TANKER_WIN_SVERDRP_0 1.0
    YB_SVER_1_1 COST      150.0     BERTH_EXCL_1_1 1.0
    YB_SVER_1_1 UNLD_MAX_SVERDRP_1_1 -80.0 TANKER_WIN_SVERDRP_1 1.0
    YB_SVER_1_2 COST      150.0     BERTH_EXCL_1_2 1.0
    YB_SVER_1_2 UNLD_MAX_SVERDRP_1_2 -80.0 TANKER_WIN_SVERDRP_2 1.0
    YB_SVER_1_3 COST      150.0     BERTH_EXCL_1_3 1.0
    YB_SVER_1_3 UNLD_MAX_SVERDRP_1_3 -80.0 TANKER_WIN_SVERDRP_3 1.0
    YB_SVER_1_4 COST      150.0     BERTH_EXCL_1_4 1.0
    YB_SVER_1_4 UNLD_MAX_SVERDRP_1_4 -80.0 TANKER_WIN_SVERDRP_4 1.0
    YB_SVER_1_5 COST      150.0     BERTH_EXCL_1_5 1.0
    YB_SVER_1_5 UNLD_MAX_SVERDRP_1_5 -80.0 TANKER_WIN_SVERDRP_5 1.0
    YB_SVER_1_6 COST      150.0     BERTH_EXCL_1_6 1.0
    YB_SVER_1_6 UNLD_MAX_SVERDRP_1_6 -80.0 TANKER_WIN_SVERDRP_6 1.0
    MARK0001  'MARKER'                 'INTEND'
    QU_ARAB_0_0 COST      75.00      INV_BAL_0_0 -1.0
    QU_ARAB_0_0 UNLD_MAX_ARABLGT_0_0 1.0
    QU_ARAB_0_1 COST      75.00      INV_BAL_0_1 -1.0
    QU_ARAB_0_1 UNLD_MAX_ARABLGT_0_1 1.0
    QU_ARAB_0_2 COST      75.00      INV_BAL_0_2 -1.0
    QU_ARAB_0_2 UNLD_MAX_ARABLGT_0_2 1.0
    QU_ARAB_0_3 COST      75.00      INV_BAL_0_3 -1.0
    QU_ARAB_0_3 UNLD_MAX_ARABLGT_0_3 1.0
    QU_ARAB_0_4 COST      75.00      INV_BAL_0_4 -1.0
    QU_ARAB_0_4 UNLD_MAX_ARABLGT_0_4 1.0
    QU_ARAB_0_5 COST      75.00      INV_BAL_0_5 -1.0
    QU_ARAB_0_5 UNLD_MAX_ARABLGT_0_5 1.0
    QU_ARAB_0_6 COST      75.00      INV_BAL_0_6 -1.0
    QU_ARAB_0_6 UNLD_MAX_ARABLGT_0_6 1.0
    QU_ARAB_1_0 COST      65.00      INV_BAL_1_0 -1.0
    QU_ARAB_1_0 UNLD_MAX_ARABHVY_1_0 1.0
    QU_ARAB_1_1 COST      65.00      INV_BAL_1_1 -1.0
    QU_ARAB_1_1 UNLD_MAX_ARABHVY_1_1 1.0
    QU_ARAB_1_2 COST      65.00      INV_BAL_1_2 -1.0
    QU_ARAB_1_2 UNLD_MAX_ARABHVY_1_2 1.0
    QU_ARAB_1_3 COST      65.00      INV_BAL_1_3 -1.0
    QU_ARAB_1_3 UNLD_MAX_ARABHVY_1_3 1.0
    QU_ARAB_1_4 COST      65.00      INV_BAL_1_4 -1.0
    QU_ARAB_1_4 UNLD_MAX_ARABHVY_1_4 1.0
    QU_ARAB_1_5 COST      65.00      INV_BAL_1_5 -1.0
    QU_ARAB_1_5 UNLD_MAX_ARABHVY_1_5 1.0
    QU_ARAB_1_6 COST      65.00      INV_BAL_1_6 -1.0
    QU_ARAB_1_6 UNLD_MAX_ARABHVY_1_6 1.0
    QU_BASR_2_0 COST      70.00      INV_BAL_2_0 -1.0
    QU_BASR_2_0 UNLD_MAX_BASRAH_2_0 1.0
    QU_BASR_2_1 COST      70.00      INV_BAL_2_1 -1.0
    QU_BASR_2_1 UNLD_MAX_BASRAH_2_1 1.0
    QU_BASR_2_2 COST      70.00      INV_BAL_2_2 -1.0
    QU_BASR_2_2 UNLD_MAX_BASRAH_2_2 1.0
    QU_BASR_2_3 COST      70.00      INV_BAL_2_3 -1.0
    QU_BASR_2_3 UNLD_MAX_BASRAH_2_3 1.0
    QU_BASR_2_4 COST      70.00      INV_BAL_2_4 -1.0
    QU_BASR_2_4 UNLD_MAX_BASRAH_2_4 1.0
    QU_BASR_2_5 COST      70.00      INV_BAL_2_5 -1.0
    QU_BASR_2_5 UNLD_MAX_BASRAH_2_5 1.0
    QU_BASR_2_6 COST      70.00      INV_BAL_2_6 -1.0
    QU_BASR_2_6 UNLD_MAX_BASRAH_2_6 1.0
    QU_MAYA_3_0 COST      60.00      INV_BAL_3_0 -1.0
    QU_MAYA_3_0 UNLD_MAX_MAYA_3_0 1.0
    QU_MAYA_3_1 COST      60.00      INV_BAL_3_1 -1.0
    QU_MAYA_3_1 UNLD_MAX_MAYA_3_1 1.0
    QU_MAYA_3_2 COST      60.00      INV_BAL_3_2 -1.0
    QU_MAYA_3_2 UNLD_MAX_MAYA_3_2 1.0
    QU_MAYA_3_3 COST      60.00      INV_BAL_3_3 -1.0
    QU_MAYA_3_3 UNLD_MAX_MAYA_3_3 1.0
    QU_MAYA_3_4 COST      60.00      INV_BAL_3_4 -1.0
    QU_MAYA_3_4 UNLD_MAX_MAYA_3_4 1.0
    QU_MAYA_3_5 COST      60.00      INV_BAL_3_5 -1.0
    QU_MAYA_3_5 UNLD_MAX_MAYA_3_5 1.0
    QU_MAYA_3_6 COST      60.00      INV_BAL_3_6 -1.0
    QU_MAYA_3_6 UNLD_MAX_MAYA_3_6 1.0
    QU_BONN_0_0 COST      82.00      INV_BAL_4_0 -1.0
    QU_BONN_0_0 UNLD_MAX_BONNY_0_0 1.0
    QU_BONN_0_1 COST      82.00      INV_BAL_4_1 -1.0
    QU_BONN_0_1 UNLD_MAX_BONNY_0_1 1.0
    QU_BONN_0_2 COST      82.00      INV_BAL_4_2 -1.0
    QU_BONN_0_2 UNLD_MAX_BONNY_0_2 1.0
    QU_BONN_0_3 COST      82.00      INV_BAL_4_3 -1.0
    QU_BONN_0_3 UNLD_MAX_BONNY_0_3 1.0
    QU_BONN_0_4 COST      82.00      INV_BAL_4_4 -1.0
    QU_BONN_0_4 UNLD_MAX_BONNY_0_4 1.0
    QU_BONN_0_5 COST      82.00      INV_BAL_4_5 -1.0
    QU_BONN_0_5 UNLD_MAX_BONNY_0_5 1.0
    QU_BONN_0_6 COST      82.00      INV_BAL_4_6 -1.0
    QU_BONN_0_6 UNLD_MAX_BONNY_0_6 1.0
    QU_MUMB_1_0 COST      76.00      INV_BAL_5_0 -1.0
    QU_MUMB_1_0 UNLD_MAX_MUMBAI_1_0 1.0
    QU_MUMB_1_1 COST      76.00      INV_BAL_5_1 -1.0
    QU_MUMB_1_1 UNLD_MAX_MUMBAI_1_1 1.0
    QU_MUMB_1_2 COST      76.00      INV_BAL_5_2 -1.0
    QU_MUMB_1_2 UNLD_MAX_MUMBAI_1_2 1.0
    QU_MUMB_1_3 COST      76.00      INV_BAL_5_3 -1.0
    QU_MUMB_1_3 UNLD_MAX_MUMBAI_1_3 1.0
    QU_MUMB_1_4 COST      76.00      INV_BAL_5_4 -1.0
    QU_MUMB_1_4 UNLD_MAX_MUMBAI_1_4 1.0
    QU_MUMB_1_5 COST      76.00      INV_BAL_5_5 -1.0
    QU_MUMB_1_5 UNLD_MAX_MUMBAI_1_5 1.0
    QU_MUMB_1_6 COST      76.00      INV_BAL_5_6 -1.0
    QU_MUMB_1_6 UNLD_MAX_MUMBAI_1_6 1.0
    QU_KUWA_2_0 COST      71.00      INV_BAL_6_0 -1.0
    QU_KUWA_2_0 UNLD_MAX_KUWAIT_2_0 1.0
    QU_KUWA_2_1 COST      71.00      INV_BAL_6_1 -1.0
    QU_KUWA_2_1 UNLD_MAX_KUWAIT_2_1 1.0
    QU_KUWA_2_2 COST      71.00      INV_BAL_6_2 -1.0
    QU_KUWA_2_2 UNLD_MAX_KUWAIT_2_2 1.0
    QU_KUWA_2_3 COST      71.00      INV_BAL_6_3 -1.0
    QU_KUWA_2_3 UNLD_MAX_KUWAIT_2_3 1.0
    QU_KUWA_2_4 COST      71.00      INV_BAL_6_4 -1.0
    QU_KUWA_2_4 UNLD_MAX_KUWAIT_2_4 1.0
    QU_KUWA_2_5 COST      71.00      INV_BAL_6_5 -1.0
    QU_KUWA_2_5 UNLD_MAX_KUWAIT_2_5 1.0
    QU_KUWA_2_6 COST      71.00      INV_BAL_6_6 -1.0
    QU_KUWA_2_6 UNLD_MAX_KUWAIT_2_6 1.0
    QU_MURB_3_0 COST      80.00      INV_BAL_7_0 -1.0
    QU_MURB_3_0 UNLD_MAX_MURBAN_3_0 1.0
    QU_MURB_3_1 COST      80.00      INV_BAL_7_1 -1.0
    QU_MURB_3_1 UNLD_MAX_MURBAN_3_1 1.0
    QU_MURB_3_2 COST      80.00      INV_BAL_7_2 -1.0
    QU_MURB_3_2 UNLD_MAX_MURBAN_3_2 1.0
    QU_MURB_3_3 COST      80.00      INV_BAL_7_3 -1.0
    QU_MURB_3_3 UNLD_MAX_MURBAN_3_3 1.0
    QU_MURB_3_4 COST      80.00      INV_BAL_7_4 -1.0
    QU_MURB_3_4 UNLD_MAX_MURBAN_3_4 1.0
    QU_MURB_3_5 COST      80.00      INV_BAL_7_5 -1.0
    QU_MURB_3_5 UNLD_MAX_MURBAN_3_5 1.0
    QU_MURB_3_6 COST      80.00      INV_BAL_7_6 -1.0
    QU_MURB_3_6 UNLD_MAX_MURBAN_3_6 1.0
    QU_SOKO_0_0 COST      81.00      INV_BAL_8_0 -1.0
    QU_SOKO_0_0 UNLD_MAX_SOKOL_0_0 1.0
    QU_SOKO_0_1 COST      81.00      INV_BAL_8_1 -1.0
    QU_SOKO_0_1 UNLD_MAX_SOKOL_0_1 1.0
    QU_SOKO_0_2 COST      81.00      INV_BAL_8_2 -1.0
    QU_SOKO_0_2 UNLD_MAX_SOKOL_0_2 1.0
    QU_SOKO_0_3 COST      81.00      INV_BAL_8_3 -1.0
    QU_SOKO_0_3 UNLD_MAX_SOKOL_0_3 1.0
    QU_SOKO_0_4 COST      81.00      INV_BAL_8_4 -1.0
    QU_SOKO_0_4 UNLD_MAX_SOKOL_0_4 1.0
    QU_SOKO_0_5 COST      81.00      INV_BAL_8_5 -1.0
    QU_SOKO_0_5 UNLD_MAX_SOKOL_0_5 1.0
    QU_SOKO_0_6 COST      81.00      INV_BAL_8_6 -1.0
    QU_SOKO_0_6 UNLD_MAX_SOKOL_0_6 1.0
    QU_SVER_1_0 COST      74.00      INV_BAL_9_0 -1.0
    QU_SVER_1_0 UNLD_MAX_SVERDRP_1_0 1.0
    QU_SVER_1_1 COST      74.00      INV_BAL_9_1 -1.0
    QU_SVER_1_1 UNLD_MAX_SVERDRP_1_1 1.0
    QU_SVER_1_2 COST      74.00      INV_BAL_9_2 -1.0
    QU_SVER_1_2 UNLD_MAX_SVERDRP_1_2 1.0
    QU_SVER_1_3 COST      74.00      INV_BAL_9_3 -1.0
    QU_SVER_1_3 UNLD_MAX_SVERDRP_1_3 1.0
    QU_SVER_1_4 COST      74.00      INV_BAL_9_4 -1.0
    QU_SVER_1_4 UNLD_MAX_SVERDRP_1_4 1.0
    QU_SVER_1_5 COST      74.00      INV_BAL_9_5 -1.0
    QU_SVER_1_5 UNLD_MAX_SVERDRP_1_5 1.0
    QU_SVER_1_6 COST      74.00      INV_BAL_9_6 -1.0
    QU_SVER_1_6 UNLD_MAX_SVERDRP_1_6 1.0
    INV_0_0    COST      0.25      INV_BAL_0_0 1.0
    INV_0_0    INV_BAL_0_1 -1.0
    INV_0_1    COST      0.25      INV_BAL_0_1 1.0
    INV_0_1    INV_BAL_0_2 -1.0
    INV_0_2    COST      0.25      INV_BAL_0_2 1.0
    INV_0_2    INV_BAL_0_3 -1.0
    INV_0_3    COST      0.25      INV_BAL_0_3 1.0
    INV_0_3    INV_BAL_0_4 -1.0
    INV_0_4    COST      0.25      INV_BAL_0_4 1.0
    INV_0_4    INV_BAL_0_5 -1.0
    INV_0_5    COST      0.25      INV_BAL_0_5 1.0
    INV_0_5    INV_BAL_0_6 -1.0
    INV_0_6    COST      0.25      INV_BAL_0_6 1.0
    INV_1_0    COST      0.25      INV_BAL_1_0 1.0
    INV_1_0    INV_BAL_1_1 -1.0
    INV_1_1    COST      0.25      INV_BAL_1_1 1.0
    INV_1_1    INV_BAL_1_2 -1.0
    INV_1_2    COST      0.25      INV_BAL_1_2 1.0
    INV_1_2    INV_BAL_1_3 -1.0
    INV_1_3    COST      0.25      INV_BAL_1_3 1.0
    INV_1_3    INV_BAL_1_4 -1.0
    INV_1_4    COST      0.25      INV_BAL_1_4 1.0
    INV_1_4    INV_BAL_1_5 -1.0
    INV_1_5    COST      0.25      INV_BAL_1_5 1.0
    INV_1_5    INV_BAL_1_6 -1.0
    INV_1_6    COST      0.25      INV_BAL_1_6 1.0
    INV_2_0    COST      0.25      INV_BAL_2_0 1.0
    INV_2_0    INV_BAL_2_1 -1.0
    INV_2_1    COST      0.25      INV_BAL_2_1 1.0
    INV_2_1    INV_BAL_2_2 -1.0
    INV_2_2    COST      0.25      INV_BAL_2_2 1.0
    INV_2_2    INV_BAL_2_3 -1.0
    INV_2_3    COST      0.25      INV_BAL_2_3 1.0
    INV_2_3    INV_BAL_2_4 -1.0
    INV_2_4    COST      0.25      INV_BAL_2_4 1.0
    INV_2_4    INV_BAL_2_5 -1.0
    INV_2_5    COST      0.25      INV_BAL_2_5 1.0
    INV_2_5    INV_BAL_2_6 -1.0
    INV_2_6    COST      0.25      INV_BAL_2_6 1.0
    INV_3_0    COST      0.25      INV_BAL_3_0 1.0
    INV_3_0    INV_BAL_3_1 -1.0
    INV_3_1    COST      0.25      INV_BAL_3_1 1.0
    INV_3_1    INV_BAL_3_2 -1.0
    INV_3_2    COST      0.25      INV_BAL_3_2 1.0
    INV_3_2    INV_BAL_3_3 -1.0
    INV_3_3    COST      0.25      INV_BAL_3_3 1.0
    INV_3_3    INV_BAL_3_4 -1.0
    INV_3_4    COST      0.25      INV_BAL_3_4 1.0
    INV_3_4    INV_BAL_3_5 -1.0
    INV_3_5    COST      0.25      INV_BAL_3_5 1.0
    INV_3_5    INV_BAL_3_6 -1.0
    INV_3_6    COST      0.25      INV_BAL_3_6 1.0
    INV_4_0    COST      0.25      INV_BAL_4_0 1.0
    INV_4_0    INV_BAL_4_1 -1.0
    INV_4_1    COST      0.25      INV_BAL_4_1 1.0
    INV_4_1    INV_BAL_4_2 -1.0
    INV_4_2    COST      0.25      INV_BAL_4_2 1.0
    INV_4_2    INV_BAL_4_3 -1.0
    INV_4_3    COST      0.25      INV_BAL_4_3 1.0
    INV_4_3    INV_BAL_4_4 -1.0
    INV_4_4    COST      0.25      INV_BAL_4_4 1.0
    INV_4_4    INV_BAL_4_5 -1.0
    INV_4_5    COST      0.25      INV_BAL_4_5 1.0
    INV_4_5    INV_BAL_4_6 -1.0
    INV_4_6    COST      0.25      INV_BAL_4_6 1.0
    INV_5_0    COST      0.25      INV_BAL_5_0 1.0
    INV_5_0    INV_BAL_5_1 -1.0
    INV_5_1    COST      0.25      INV_BAL_5_1 1.0
    INV_5_1    INV_BAL_5_2 -1.0
    INV_5_2    COST      0.25      INV_BAL_5_2 1.0
    INV_5_2    INV_BAL_5_3 -1.0
    INV_5_3    COST      0.25      INV_BAL_5_3 1.0
    INV_5_3    INV_BAL_5_4 -1.0
    INV_5_4    COST      0.25      INV_BAL_5_4 1.0
    INV_5_4    INV_BAL_5_5 -1.0
    INV_5_5    COST      0.25      INV_BAL_5_5 1.0
    INV_5_5    INV_BAL_5_6 -1.0
    INV_5_6    COST      0.25      INV_BAL_5_6 1.0
    INV_6_0    COST      0.25      INV_BAL_6_0 1.0
    INV_6_0    INV_BAL_6_1 -1.0
    INV_6_1    COST      0.25      INV_BAL_6_1 1.0
    INV_6_1    INV_BAL_6_2 -1.0
    INV_6_2    COST      0.25      INV_BAL_6_2 1.0
    INV_6_2    INV_BAL_6_3 -1.0
    INV_6_3    COST      0.25      INV_BAL_6_3 1.0
    INV_6_3    INV_BAL_6_4 -1.0
    INV_6_4    COST      0.25      INV_BAL_6_4 1.0
    INV_6_4    INV_BAL_6_5 -1.0
    INV_6_5    COST      0.25      INV_BAL_6_5 1.0
    INV_6_5    INV_BAL_6_6 -1.0
    INV_6_6    COST      0.25      INV_BAL_6_6 1.0
    INV_7_0    COST      0.25      INV_BAL_7_0 1.0
    INV_7_0    INV_BAL_7_1 -1.0
    INV_7_1    COST      0.25      INV_BAL_7_1 1.0
    INV_7_1    INV_BAL_7_2 -1.0
    INV_7_2    COST      0.25      INV_BAL_7_2 1.0
    INV_7_2    INV_BAL_7_3 -1.0
    INV_7_3    COST      0.25      INV_BAL_7_3 1.0
    INV_7_3    INV_BAL_7_4 -1.0
    INV_7_4    COST      0.25      INV_BAL_7_4 1.0
    INV_7_4    INV_BAL_7_5 -1.0
    INV_7_5    COST      0.25      INV_BAL_7_5 1.0
    INV_7_5    INV_BAL_7_6 -1.0
    INV_7_6    COST      0.25      INV_BAL_7_6 1.0
    INV_8_0    COST      0.25      INV_BAL_8_0 1.0
    INV_8_0    INV_BAL_8_1 -1.0
    INV_8_1    COST      0.25      INV_BAL_8_1 1.0
    INV_8_1    INV_BAL_8_2 -1.0
    INV_8_2    COST      0.25      INV_BAL_8_2 1.0
    INV_8_2    INV_BAL_8_3 -1.0
    INV_8_3    COST      0.25      INV_BAL_8_3 1.0
    INV_8_3    INV_BAL_8_4 -1.0
    INV_8_4    COST      0.25      INV_BAL_8_4 1.0
    INV_8_4    INV_BAL_8_5 -1.0
    INV_8_5    COST      0.25      INV_BAL_8_5 1.0
    INV_8_5    INV_BAL_8_6 -1.0
    INV_8_6    COST      0.25      INV_BAL_8_6 1.0
    INV_9_0    COST      0.25      INV_BAL_9_0 1.0
    INV_9_0    INV_BAL_9_1 -1.0
    INV_9_1    COST      0.25      INV_BAL_9_1 1.0
    INV_9_1    INV_BAL_9_2 -1.0
    INV_9_2    COST      0.25      INV_BAL_9_2 1.0
    INV_9_2    INV_BAL_9_3 -1.0
    INV_9_3    COST      0.25      INV_BAL_9_3 1.0
    INV_9_3    INV_BAL_9_4 -1.0
    INV_9_4    COST      0.25      INV_BAL_9_4 1.0
    INV_9_4    INV_BAL_9_5 -1.0
    INV_9_5    COST      0.25      INV_BAL_9_5 1.0
    INV_9_5    INV_BAL_9_6 -1.0
    INV_9_6    COST      0.25      INV_BAL_9_6 1.0
    INV_10_0   COST      0.25      INV_BAL_10_0 1.0
    INV_10_0   INV_BAL_10_1 -1.0
    INV_10_1   COST      0.25      INV_BAL_10_1 1.0
    INV_10_1   INV_BAL_10_2 -1.0
    INV_10_2   COST      0.25      INV_BAL_10_2 1.0
    INV_10_2   INV_BAL_10_3 -1.0
    INV_10_3   COST      0.25      INV_BAL_10_3 1.0
    INV_10_3   INV_BAL_10_4 -1.0
    INV_10_4   COST      0.25      INV_BAL_10_4 1.0
    INV_10_4   INV_BAL_10_5 -1.0
    INV_10_5   COST      0.25      INV_BAL_10_5 1.0
    INV_10_5   INV_BAL_10_6 -1.0
    INV_10_6   COST      0.25      INV_BAL_10_6 1.0
    INV_11_0   COST      0.25      INV_BAL_11_0 1.0
    INV_11_0   INV_BAL_11_1 -1.0
    INV_11_1   COST      0.25      INV_BAL_11_1 1.0
    INV_11_1   INV_BAL_11_2 -1.0
    INV_11_2   COST      0.25      INV_BAL_11_2 1.0
    INV_11_2   INV_BAL_11_3 -1.0
    INV_11_3   COST      0.25      INV_BAL_11_3 1.0
    INV_11_3   INV_BAL_11_4 -1.0
    INV_11_4   COST      0.25      INV_BAL_11_4 1.0
    INV_11_4   INV_BAL_11_5 -1.0
    INV_11_5   COST      0.25      INV_BAL_11_5 1.0
    INV_11_5   INV_BAL_11_6 -1.0
    INV_11_6   COST      0.25      INV_BAL_11_6 1.0
    CG_0_0_0   COST      1.50      INV_BAL_0_0 1.0
    CG_0_0_0   CDU_CAP_0_0 1.0
    CG_0_0_0   PROD_YIELD_NAPH_0 -0.2000
    CG_0_0_0   PROD_YIELD_KERO_0 -0.1500
    CG_0_0_0   PROD_YIELD_GASOIL_0 -0.3000
    CG_0_0_0   PROD_YIELD_VGO_0 -0.2000
    CG_0_0_0   PROD_YIELD_RESID_0 -0.1500
    CG_0_0_1   COST      1.50      INV_BAL_0_1 1.0
    CG_0_0_1   CDU_CAP_0_1 1.0
    CG_0_0_1   PROD_YIELD_NAPH_1 -0.2000
    CG_0_0_1   PROD_YIELD_KERO_1 -0.1500
    CG_0_0_1   PROD_YIELD_GASOIL_1 -0.3000
    CG_0_0_1   PROD_YIELD_VGO_1 -0.2000
    CG_0_0_1   PROD_YIELD_RESID_1 -0.1500
    CG_0_0_2   COST      1.50      INV_BAL_0_2 1.0
    CG_0_0_2   CDU_CAP_0_2 1.0
    CG_0_0_2   PROD_YIELD_NAPH_2 -0.2000
    CG_0_0_2   PROD_YIELD_KERO_2 -0.1500
    CG_0_0_2   PROD_YIELD_GASOIL_2 -0.3000
    CG_0_0_2   PROD_YIELD_VGO_2 -0.2000
    CG_0_0_2   PROD_YIELD_RESID_2 -0.1500
    CG_0_0_3   COST      1.50      INV_BAL_0_3 1.0
    CG_0_0_3   CDU_CAP_0_3 1.0
    CG_0_0_3   PROD_YIELD_NAPH_3 -0.2000
    CG_0_0_3   PROD_YIELD_KERO_3 -0.1500
    CG_0_0_3   PROD_YIELD_GASOIL_3 -0.3000
    CG_0_0_3   PROD_YIELD_VGO_3 -0.2000
    CG_0_0_3   PROD_YIELD_RESID_3 -0.1500
    CG_0_0_4   COST      1.50      INV_BAL_0_4 1.0
    CG_0_0_4   CDU_CAP_0_4 1.0
    CG_0_0_4   PROD_YIELD_NAPH_4 -0.2000
    CG_0_0_4   PROD_YIELD_KERO_4 -0.1500
    CG_0_0_4   PROD_YIELD_GASOIL_4 -0.3000
    CG_0_0_4   PROD_YIELD_VGO_4 -0.2000
    CG_0_0_4   PROD_YIELD_RESID_4 -0.1500
    CG_0_0_5   COST      1.50      INV_BAL_0_5 1.0
    CG_0_0_5   CDU_CAP_0_5 1.0
    CG_0_0_5   PROD_YIELD_NAPH_5 -0.2000
    CG_0_0_5   PROD_YIELD_KERO_5 -0.1500
    CG_0_0_5   PROD_YIELD_GASOIL_5 -0.3000
    CG_0_0_5   PROD_YIELD_VGO_5 -0.2000
    CG_0_0_5   PROD_YIELD_RESID_5 -0.1500
    CG_0_0_6   COST      1.50      INV_BAL_0_6 1.0
    CG_0_0_6   CDU_CAP_0_6 1.0
    CG_0_0_6   PROD_YIELD_NAPH_6 -0.2000
    CG_0_0_6   PROD_YIELD_KERO_6 -0.1500
    CG_0_0_6   PROD_YIELD_GASOIL_6 -0.3000
    CG_0_0_6   PROD_YIELD_VGO_6 -0.2000
    CG_0_0_6   PROD_YIELD_RESID_6 -0.1500
    CG_0_1_0   COST      1.50      INV_BAL_0_0 1.0
    CG_0_1_0   CDU_CAP_1_0 1.0
    CG_0_1_0   PROD_YIELD_NAPH_0 -0.2000
    CG_0_1_0   PROD_YIELD_KERO_0 -0.1500
    CG_0_1_0   PROD_YIELD_GASOIL_0 -0.3000
    CG_0_1_0   PROD_YIELD_VGO_0 -0.2000
    CG_0_1_0   PROD_YIELD_RESID_0 -0.1500
    CG_0_1_1   COST      1.50      INV_BAL_0_1 1.0
    CG_0_1_1   CDU_CAP_1_1 1.0
    CG_0_1_1   PROD_YIELD_NAPH_1 -0.2000
    CG_0_1_1   PROD_YIELD_KERO_1 -0.1500
    CG_0_1_1   PROD_YIELD_GASOIL_1 -0.3000
    CG_0_1_1   PROD_YIELD_VGO_1 -0.2000
    CG_0_1_1   PROD_YIELD_RESID_1 -0.1500
    CG_0_1_2   COST      1.50      INV_BAL_0_2 1.0
    CG_0_1_2   CDU_CAP_1_2 1.0
    CG_0_1_2   PROD_YIELD_NAPH_2 -0.2000
    CG_0_1_2   PROD_YIELD_KERO_2 -0.1500
    CG_0_1_2   PROD_YIELD_GASOIL_2 -0.3000
    CG_0_1_2   PROD_YIELD_VGO_2 -0.2000
    CG_0_1_2   PROD_YIELD_RESID_2 -0.1500
    CG_0_1_3   COST      1.50      INV_BAL_0_3 1.0
    CG_0_1_3   CDU_CAP_1_3 1.0
    CG_0_1_3   PROD_YIELD_NAPH_3 -0.2000
    CG_0_1_3   PROD_YIELD_KERO_3 -0.1500
    CG_0_1_3   PROD_YIELD_GASOIL_3 -0.3000
    CG_0_1_3   PROD_YIELD_VGO_3 -0.2000
    CG_0_1_3   PROD_YIELD_RESID_3 -0.1500
    CG_0_1_4   COST      1.50      INV_BAL_0_4 1.0
    CG_0_1_4   CDU_CAP_1_4 1.0
    CG_0_1_4   PROD_YIELD_NAPH_4 -0.2000
    CG_0_1_4   PROD_YIELD_KERO_4 -0.1500
    CG_0_1_4   PROD_YIELD_GASOIL_4 -0.3000
    CG_0_1_4   PROD_YIELD_VGO_4 -0.2000
    CG_0_1_4   PROD_YIELD_RESID_4 -0.1500
    CG_0_1_5   COST      1.50      INV_BAL_0_5 1.0
    CG_0_1_5   CDU_CAP_1_5 1.0
    CG_0_1_5   PROD_YIELD_NAPH_5 -0.2000
    CG_0_1_5   PROD_YIELD_KERO_5 -0.1500
    CG_0_1_5   PROD_YIELD_GASOIL_5 -0.3000
    CG_0_1_5   PROD_YIELD_VGO_5 -0.2000
    CG_0_1_5   PROD_YIELD_RESID_5 -0.1500
    CG_0_1_6   COST      1.50      INV_BAL_0_6 1.0
    CG_0_1_6   CDU_CAP_1_6 1.0
    CG_0_1_6   PROD_YIELD_NAPH_6 -0.2000
    CG_0_1_6   PROD_YIELD_KERO_6 -0.1500
    CG_0_1_6   PROD_YIELD_GASOIL_6 -0.3000
    CG_0_1_6   PROD_YIELD_VGO_6 -0.2000
    CG_0_1_6   PROD_YIELD_RESID_6 -0.1500
    CG_0_2_0   COST      1.50      INV_BAL_0_0 1.0
    CG_0_2_0   CDU_CAP_2_0 1.0
    CG_0_2_0   PROD_YIELD_NAPH_0 -0.2000
    CG_0_2_0   PROD_YIELD_KERO_0 -0.1500
    CG_0_2_0   PROD_YIELD_GASOIL_0 -0.3000
    CG_0_2_0   PROD_YIELD_VGO_0 -0.2000
    CG_0_2_0   PROD_YIELD_RESID_0 -0.1500
    CG_0_2_1   COST      1.50      INV_BAL_0_1 1.0
    CG_0_2_1   CDU_CAP_2_1 1.0
    CG_0_2_1   PROD_YIELD_NAPH_1 -0.2000
    CG_0_2_1   PROD_YIELD_KERO_1 -0.1500
    CG_0_2_1   PROD_YIELD_GASOIL_1 -0.3000
    CG_0_2_1   PROD_YIELD_VGO_1 -0.2000
    CG_0_2_1   PROD_YIELD_RESID_1 -0.1500
    CG_0_2_2   COST      1.50      INV_BAL_0_2 1.0
    CG_0_2_2   CDU_CAP_2_2 1.0
    CG_0_2_2   PROD_YIELD_NAPH_2 -0.2000
    CG_0_2_2   PROD_YIELD_KERO_2 -0.1500
    CG_0_2_2   PROD_YIELD_GASOIL_2 -0.3000
    CG_0_2_2   PROD_YIELD_VGO_2 -0.2000
    CG_0_2_2   PROD_YIELD_RESID_2 -0.1500
    CG_0_2_3   COST      1.50      INV_BAL_0_3 1.0
    CG_0_2_3   CDU_CAP_2_3 1.0
    CG_0_2_3   PROD_YIELD_NAPH_3 -0.2000
    CG_0_2_3   PROD_YIELD_KERO_3 -0.1500
    CG_0_2_3   PROD_YIELD_GASOIL_3 -0.3000
    CG_0_2_3   PROD_YIELD_VGO_3 -0.2000
    CG_0_2_3   PROD_YIELD_RESID_3 -0.1500
    CG_0_2_4   COST      1.50      INV_BAL_0_4 1.0
    CG_0_2_4   CDU_CAP_2_4 1.0
    CG_0_2_4   PROD_YIELD_NAPH_4 -0.2000
    CG_0_2_4   PROD_YIELD_KERO_4 -0.1500
    CG_0_2_4   PROD_YIELD_GASOIL_4 -0.3000
    CG_0_2_4   PROD_YIELD_VGO_4 -0.2000
    CG_0_2_4   PROD_YIELD_RESID_4 -0.1500
    CG_0_2_5   COST      1.50      INV_BAL_0_5 1.0
    CG_0_2_5   CDU_CAP_2_5 1.0
    CG_0_2_5   PROD_YIELD_NAPH_5 -0.2000
    CG_0_2_5   PROD_YIELD_KERO_5 -0.1500
    CG_0_2_5   PROD_YIELD_GASOIL_5 -0.3000
    CG_0_2_5   PROD_YIELD_VGO_5 -0.2000
    CG_0_2_5   PROD_YIELD_RESID_5 -0.1500
    CG_0_2_6   COST      1.50      INV_BAL_0_6 1.0
    CG_0_2_6   CDU_CAP_2_6 1.0
    CG_0_2_6   PROD_YIELD_NAPH_6 -0.2000
    CG_0_2_6   PROD_YIELD_KERO_6 -0.1500
    CG_0_2_6   PROD_YIELD_GASOIL_6 -0.3000
    CG_0_2_6   PROD_YIELD_VGO_6 -0.2000
    CG_0_2_6   PROD_YIELD_RESID_6 -0.1500
    CG_1_0_0   COST      1.50      INV_BAL_1_0 1.0
    CG_1_0_0   CDU_CAP_0_0 1.0
    CG_1_0_0   PROD_YIELD_NAPH_0 -0.1200
    CG_1_0_0   PROD_YIELD_KERO_0 -0.1000
    CG_1_0_0   PROD_YIELD_GASOIL_0 -0.2500
    CG_1_0_0   PROD_YIELD_VGO_0 -0.2500
    CG_1_0_0   PROD_YIELD_RESID_0 -0.2800
    CG_1_0_1   COST      1.50      INV_BAL_1_1 1.0
    CG_1_0_1   CDU_CAP_0_1 1.0
    CG_1_0_1   PROD_YIELD_NAPH_1 -0.1200
    CG_1_0_1   PROD_YIELD_KERO_1 -0.1000
    CG_1_0_1   PROD_YIELD_GASOIL_1 -0.2500
    CG_1_0_1   PROD_YIELD_VGO_1 -0.2500
    CG_1_0_1   PROD_YIELD_RESID_1 -0.2800
    CG_1_0_2   COST      1.50      INV_BAL_1_2 1.0
    CG_1_0_2   CDU_CAP_0_2 1.0
    CG_1_0_2   PROD_YIELD_NAPH_2 -0.1200
    CG_1_0_2   PROD_YIELD_KERO_2 -0.1000
    CG_1_0_2   PROD_YIELD_GASOIL_2 -0.2500
    CG_1_0_2   PROD_YIELD_VGO_2 -0.2500
    CG_1_0_2   PROD_YIELD_RESID_2 -0.2800
    CG_1_0_3   COST      1.50      INV_BAL_1_3 1.0
    CG_1_0_3   CDU_CAP_0_3 1.0
    CG_1_0_3   PROD_YIELD_NAPH_3 -0.1200
    CG_1_0_3   PROD_YIELD_KERO_3 -0.1000
    CG_1_0_3   PROD_YIELD_GASOIL_3 -0.2500
    CG_1_0_3   PROD_YIELD_VGO_3 -0.2500
    CG_1_0_3   PROD_YIELD_RESID_3 -0.2800
    CG_1_0_4   COST      1.50      INV_BAL_1_4 1.0
    CG_1_0_4   CDU_CAP_0_4 1.0
    CG_1_0_4   PROD_YIELD_NAPH_4 -0.1200
    CG_1_0_4   PROD_YIELD_KERO_4 -0.1000
    CG_1_0_4   PROD_YIELD_GASOIL_4 -0.2500
    CG_1_0_4   PROD_YIELD_VGO_4 -0.2500
    CG_1_0_4   PROD_YIELD_RESID_4 -0.2800
    CG_1_0_5   COST      1.50      INV_BAL_1_5 1.0
    CG_1_0_5   CDU_CAP_0_5 1.0
    CG_1_0_5   PROD_YIELD_NAPH_5 -0.1200
    CG_1_0_5   PROD_YIELD_KERO_5 -0.1000
    CG_1_0_5   PROD_YIELD_GASOIL_5 -0.2500
    CG_1_0_5   PROD_YIELD_VGO_5 -0.2500
    CG_1_0_5   PROD_YIELD_RESID_5 -0.2800
    CG_1_0_6   COST      1.50      INV_BAL_1_6 1.0
    CG_1_0_6   CDU_CAP_0_6 1.0
    CG_1_0_6   PROD_YIELD_NAPH_6 -0.1200
    CG_1_0_6   PROD_YIELD_KERO_6 -0.1000
    CG_1_0_6   PROD_YIELD_GASOIL_6 -0.2500
    CG_1_0_6   PROD_YIELD_VGO_6 -0.2500
    CG_1_0_6   PROD_YIELD_RESID_6 -0.2800
    CG_1_1_0   COST      1.50      INV_BAL_1_0 1.0
    CG_1_1_0   CDU_CAP_1_0 1.0
    CG_1_1_0   PROD_YIELD_NAPH_0 -0.1200
    CG_1_1_0   PROD_YIELD_KERO_0 -0.1000
    CG_1_1_0   PROD_YIELD_GASOIL_0 -0.2500
    CG_1_1_0   PROD_YIELD_VGO_0 -0.2500
    CG_1_1_0   PROD_YIELD_RESID_0 -0.2800
    CG_1_1_1   COST      1.50      INV_BAL_1_1 1.0
    CG_1_1_1   CDU_CAP_1_1 1.0
    CG_1_1_1   PROD_YIELD_NAPH_1 -0.1200
    CG_1_1_1   PROD_YIELD_KERO_1 -0.1000
    CG_1_1_1   PROD_YIELD_GASOIL_1 -0.2500
    CG_1_1_1   PROD_YIELD_VGO_1 -0.2500
    CG_1_1_1   PROD_YIELD_RESID_1 -0.2800
    CG_1_1_2   COST      1.50      INV_BAL_1_2 1.0
    CG_1_1_2   CDU_CAP_1_2 1.0
    CG_1_1_2   PROD_YIELD_NAPH_2 -0.1200
    CG_1_1_2   PROD_YIELD_KERO_2 -0.1000
    CG_1_1_2   PROD_YIELD_GASOIL_2 -0.2500
    CG_1_1_2   PROD_YIELD_VGO_2 -0.2500
    CG_1_1_2   PROD_YIELD_RESID_2 -0.2800
    CG_1_1_3   COST      1.50      INV_BAL_1_3 1.0
    CG_1_1_3   CDU_CAP_1_3 1.0
    CG_1_1_3   PROD_YIELD_NAPH_3 -0.1200
    CG_1_1_3   PROD_YIELD_KERO_3 -0.1000
    CG_1_1_3   PROD_YIELD_GASOIL_3 -0.2500
    CG_1_1_3   PROD_YIELD_VGO_3 -0.2500
    CG_1_1_3   PROD_YIELD_RESID_3 -0.2800
    CG_1_1_4   COST      1.50      INV_BAL_1_4 1.0
    CG_1_1_4   CDU_CAP_1_4 1.0
    CG_1_1_4   PROD_YIELD_NAPH_4 -0.1200
    CG_1_1_4   PROD_YIELD_KERO_4 -0.1000
    CG_1_1_4   PROD_YIELD_GASOIL_4 -0.2500
    CG_1_1_4   PROD_YIELD_VGO_4 -0.2500
    CG_1_1_4   PROD_YIELD_RESID_4 -0.2800
    CG_1_1_5   COST      1.50      INV_BAL_1_5 1.0
    CG_1_1_5   CDU_CAP_1_5 1.0
    CG_1_1_5   PROD_YIELD_NAPH_5 -0.1200
    CG_1_1_5   PROD_YIELD_KERO_5 -0.1000
    CG_1_1_5   PROD_YIELD_GASOIL_5 -0.2500
    CG_1_1_5   PROD_YIELD_VGO_5 -0.2500
    CG_1_1_5   PROD_YIELD_RESID_5 -0.2800
    CG_1_1_6   COST      1.50      INV_BAL_1_6 1.0
    CG_1_1_6   CDU_CAP_1_6 1.0
    CG_1_1_6   PROD_YIELD_NAPH_6 -0.1200
    CG_1_1_6   PROD_YIELD_KERO_6 -0.1000
    CG_1_1_6   PROD_YIELD_GASOIL_6 -0.2500
    CG_1_1_6   PROD_YIELD_VGO_6 -0.2500
    CG_1_1_6   PROD_YIELD_RESID_6 -0.2800
    CG_1_2_0   COST      1.50      INV_BAL_1_0 1.0
    CG_1_2_0   CDU_CAP_2_0 1.0
    CG_1_2_0   PROD_YIELD_NAPH_0 -0.1200
    CG_1_2_0   PROD_YIELD_KERO_0 -0.1000
    CG_1_2_0   PROD_YIELD_GASOIL_0 -0.2500
    CG_1_2_0   PROD_YIELD_VGO_0 -0.2500
    CG_1_2_0   PROD_YIELD_RESID_0 -0.2800
    CG_1_2_1   COST      1.50      INV_BAL_1_1 1.0
    CG_1_2_1   CDU_CAP_2_1 1.0
    CG_1_2_1   PROD_YIELD_NAPH_1 -0.1200
    CG_1_2_1   PROD_YIELD_KERO_1 -0.1000
    CG_1_2_1   PROD_YIELD_GASOIL_1 -0.2500
    CG_1_2_1   PROD_YIELD_VGO_1 -0.2500
    CG_1_2_1   PROD_YIELD_RESID_1 -0.2800
    CG_1_2_2   COST      1.50      INV_BAL_1_2 1.0
    CG_1_2_2   CDU_CAP_2_2 1.0
    CG_1_2_2   PROD_YIELD_NAPH_2 -0.1200
    CG_1_2_2   PROD_YIELD_KERO_2 -0.1000
    CG_1_2_2   PROD_YIELD_GASOIL_2 -0.2500
    CG_1_2_2   PROD_YIELD_VGO_2 -0.2500
    CG_1_2_2   PROD_YIELD_RESID_2 -0.2800
    CG_1_2_3   COST      1.50      INV_BAL_1_3 1.0
    CG_1_2_3   CDU_CAP_2_3 1.0
    CG_1_2_3   PROD_YIELD_NAPH_3 -0.1200
    CG_1_2_3   PROD_YIELD_KERO_3 -0.1000
    CG_1_2_3   PROD_YIELD_GASOIL_3 -0.2500
    CG_1_2_3   PROD_YIELD_VGO_3 -0.2500
    CG_1_2_3   PROD_YIELD_RESID_3 -0.2800
    CG_1_2_4   COST      1.50      INV_BAL_1_4 1.0
    CG_1_2_4   CDU_CAP_2_4 1.0
    CG_1_2_4   PROD_YIELD_NAPH_4 -0.1200
    CG_1_2_4   PROD_YIELD_KERO_4 -0.1000
    CG_1_2_4   PROD_YIELD_GASOIL_4 -0.2500
    CG_1_2_4   PROD_YIELD_VGO_4 -0.2500
    CG_1_2_4   PROD_YIELD_RESID_4 -0.2800
    CG_1_2_5   COST      1.50      INV_BAL_1_5 1.0
    CG_1_2_5   CDU_CAP_2_5 1.0
    CG_1_2_5   PROD_YIELD_NAPH_5 -0.1200
    CG_1_2_5   PROD_YIELD_KERO_5 -0.1000
    CG_1_2_5   PROD_YIELD_GASOIL_5 -0.2500
    CG_1_2_5   PROD_YIELD_VGO_5 -0.2500
    CG_1_2_5   PROD_YIELD_RESID_5 -0.2800
    CG_1_2_6   COST      1.50      INV_BAL_1_6 1.0
    CG_1_2_6   CDU_CAP_2_6 1.0
    CG_1_2_6   PROD_YIELD_NAPH_6 -0.1200
    CG_1_2_6   PROD_YIELD_KERO_6 -0.1000
    CG_1_2_6   PROD_YIELD_GASOIL_6 -0.2500
    CG_1_2_6   PROD_YIELD_VGO_6 -0.2500
    CG_1_2_6   PROD_YIELD_RESID_6 -0.2800
    CG_2_0_0   COST      1.50      INV_BAL_2_0 1.0
    CG_2_0_0   CDU_CAP_0_0 1.0
    CG_2_0_0   PROD_YIELD_NAPH_0 -0.1600
    CG_2_0_0   PROD_YIELD_KERO_0 -0.1200
    CG_2_0_0   PROD_YIELD_GASOIL_0 -0.2800
    CG_2_0_0   PROD_YIELD_VGO_0 -0.2400
    CG_2_0_0   PROD_YIELD_RESID_0 -0.2000
    CG_2_0_1   COST      1.50      INV_BAL_2_1 1.0
    CG_2_0_1   CDU_CAP_0_1 1.0
    CG_2_0_1   PROD_YIELD_NAPH_1 -0.1600
    CG_2_0_1   PROD_YIELD_KERO_1 -0.1200
    CG_2_0_1   PROD_YIELD_GASOIL_1 -0.2800
    CG_2_0_1   PROD_YIELD_VGO_1 -0.2400
    CG_2_0_1   PROD_YIELD_RESID_1 -0.2000
    CG_2_0_2   COST      1.50      INV_BAL_2_2 1.0
    CG_2_0_2   CDU_CAP_0_2 1.0
    CG_2_0_2   PROD_YIELD_NAPH_2 -0.1600
    CG_2_0_2   PROD_YIELD_KERO_2 -0.1200
    CG_2_0_2   PROD_YIELD_GASOIL_2 -0.2800
    CG_2_0_2   PROD_YIELD_VGO_2 -0.2400
    CG_2_0_2   PROD_YIELD_RESID_2 -0.2000
    CG_2_0_3   COST      1.50      INV_BAL_2_3 1.0
    CG_2_0_3   CDU_CAP_0_3 1.0
    CG_2_0_3   PROD_YIELD_NAPH_3 -0.1600
    CG_2_0_3   PROD_YIELD_KERO_3 -0.1200
    CG_2_0_3   PROD_YIELD_GASOIL_3 -0.2800
    CG_2_0_3   PROD_YIELD_VGO_3 -0.2400
    CG_2_0_3   PROD_YIELD_RESID_3 -0.2000
    CG_2_0_4   COST      1.50      INV_BAL_2_4 1.0
    CG_2_0_4   CDU_CAP_0_4 1.0
    CG_2_0_4   PROD_YIELD_NAPH_4 -0.1600
    CG_2_0_4   PROD_YIELD_KERO_4 -0.1200
    CG_2_0_4   PROD_YIELD_GASOIL_4 -0.2800
    CG_2_0_4   PROD_YIELD_VGO_4 -0.2400
    CG_2_0_4   PROD_YIELD_RESID_4 -0.2000
    CG_2_0_5   COST      1.50      INV_BAL_2_5 1.0
    CG_2_0_5   CDU_CAP_0_5 1.0
    CG_2_0_5   PROD_YIELD_NAPH_5 -0.1600
    CG_2_0_5   PROD_YIELD_KERO_5 -0.1200
    CG_2_0_5   PROD_YIELD_GASOIL_5 -0.2800
    CG_2_0_5   PROD_YIELD_VGO_5 -0.2400
    CG_2_0_5   PROD_YIELD_RESID_5 -0.2000
    CG_2_0_6   COST      1.50      INV_BAL_2_6 1.0
    CG_2_0_6   CDU_CAP_0_6 1.0
    CG_2_0_6   PROD_YIELD_NAPH_6 -0.1600
    CG_2_0_6   PROD_YIELD_KERO_6 -0.1200
    CG_2_0_6   PROD_YIELD_GASOIL_6 -0.2800
    CG_2_0_6   PROD_YIELD_VGO_6 -0.2400
    CG_2_0_6   PROD_YIELD_RESID_6 -0.2000
    CG_2_1_0   COST      1.50      INV_BAL_2_0 1.0
    CG_2_1_0   CDU_CAP_1_0 1.0
    CG_2_1_0   PROD_YIELD_NAPH_0 -0.1600
    CG_2_1_0   PROD_YIELD_KERO_0 -0.1200
    CG_2_1_0   PROD_YIELD_GASOIL_0 -0.2800
    CG_2_1_0   PROD_YIELD_VGO_0 -0.2400
    CG_2_1_0   PROD_YIELD_RESID_0 -0.2000
    CG_2_1_1   COST      1.50      INV_BAL_2_1 1.0
    CG_2_1_1   CDU_CAP_1_1 1.0
    CG_2_1_1   PROD_YIELD_NAPH_1 -0.1600
    CG_2_1_1   PROD_YIELD_KERO_1 -0.1200
    CG_2_1_1   PROD_YIELD_GASOIL_1 -0.2800
    CG_2_1_1   PROD_YIELD_VGO_1 -0.2400
    CG_2_1_1   PROD_YIELD_RESID_1 -0.2000
    CG_2_1_2   COST      1.50      INV_BAL_2_2 1.0
    CG_2_1_2   CDU_CAP_1_2 1.0
    CG_2_1_2   PROD_YIELD_NAPH_2 -0.1600
    CG_2_1_2   PROD_YIELD_KERO_2 -0.1200
    CG_2_1_2   PROD_YIELD_GASOIL_2 -0.2800
    CG_2_1_2   PROD_YIELD_VGO_2 -0.2400
    CG_2_1_2   PROD_YIELD_RESID_2 -0.2000
    CG_2_1_3   COST      1.50      INV_BAL_2_3 1.0
    CG_2_1_3   CDU_CAP_1_3 1.0
    CG_2_1_3   PROD_YIELD_NAPH_3 -0.1600
    CG_2_1_3   PROD_YIELD_KERO_3 -0.1200
    CG_2_1_3   PROD_YIELD_GASOIL_3 -0.2800
    CG_2_1_3   PROD_YIELD_VGO_3 -0.2400
    CG_2_1_3   PROD_YIELD_RESID_3 -0.2000
    CG_2_1_4   COST      1.50      INV_BAL_2_4 1.0
    CG_2_1_4   CDU_CAP_1_4 1.0
    CG_2_1_4   PROD_YIELD_NAPH_4 -0.1600
    CG_2_1_4   PROD_YIELD_KERO_4 -0.1200
    CG_2_1_4   PROD_YIELD_GASOIL_4 -0.2800
    CG_2_1_4   PROD_YIELD_VGO_4 -0.2400
    CG_2_1_4   PROD_YIELD_RESID_4 -0.2000
    CG_2_1_5   COST      1.50      INV_BAL_2_5 1.0
    CG_2_1_5   CDU_CAP_1_5 1.0
    CG_2_1_5   PROD_YIELD_NAPH_5 -0.1600
    CG_2_1_5   PROD_YIELD_KERO_5 -0.1200
    CG_2_1_5   PROD_YIELD_GASOIL_5 -0.2800
    CG_2_1_5   PROD_YIELD_VGO_5 -0.2400
    CG_2_1_5   PROD_YIELD_RESID_5 -0.2000
    CG_2_1_6   COST      1.50      INV_BAL_2_6 1.0
    CG_2_1_6   CDU_CAP_1_6 1.0
    CG_2_1_6   PROD_YIELD_NAPH_6 -0.1600
    CG_2_1_6   PROD_YIELD_KERO_6 -0.1200
    CG_2_1_6   PROD_YIELD_GASOIL_6 -0.2800
    CG_2_1_6   PROD_YIELD_VGO_6 -0.2400
    CG_2_1_6   PROD_YIELD_RESID_6 -0.2000
    CG_2_2_0   COST      1.50      INV_BAL_2_0 1.0
    CG_2_2_0   CDU_CAP_2_0 1.0
    CG_2_2_0   PROD_YIELD_NAPH_0 -0.1600
    CG_2_2_0   PROD_YIELD_KERO_0 -0.1200
    CG_2_2_0   PROD_YIELD_GASOIL_0 -0.2800
    CG_2_2_0   PROD_YIELD_VGO_0 -0.2400
    CG_2_2_0   PROD_YIELD_RESID_0 -0.2000
    CG_2_2_1   COST      1.50      INV_BAL_2_1 1.0
    CG_2_2_1   CDU_CAP_2_1 1.0
    CG_2_2_1   PROD_YIELD_NAPH_1 -0.1600
    CG_2_2_1   PROD_YIELD_KERO_1 -0.1200
    CG_2_2_1   PROD_YIELD_GASOIL_1 -0.2800
    CG_2_2_1   PROD_YIELD_VGO_1 -0.2400
    CG_2_2_1   PROD_YIELD_RESID_1 -0.2000
    CG_2_2_2   COST      1.50      INV_BAL_2_2 1.0
    CG_2_2_2   CDU_CAP_2_2 1.0
    CG_2_2_2   PROD_YIELD_NAPH_2 -0.1600
    CG_2_2_2   PROD_YIELD_KERO_2 -0.1200
    CG_2_2_2   PROD_YIELD_GASOIL_2 -0.2800
    CG_2_2_2   PROD_YIELD_VGO_2 -0.2400
    CG_2_2_2   PROD_YIELD_RESID_2 -0.2000
    CG_2_2_3   COST      1.50      INV_BAL_2_3 1.0
    CG_2_2_3   CDU_CAP_2_3 1.0
    CG_2_2_3   PROD_YIELD_NAPH_3 -0.1600
    CG_2_2_3   PROD_YIELD_KERO_3 -0.1200
    CG_2_2_3   PROD_YIELD_GASOIL_3 -0.2800
    CG_2_2_3   PROD_YIELD_VGO_3 -0.2400
    CG_2_2_3   PROD_YIELD_RESID_3 -0.2000
    CG_2_2_4   COST      1.50      INV_BAL_2_4 1.0
    CG_2_2_4   CDU_CAP_2_4 1.0
    CG_2_2_4   PROD_YIELD_NAPH_4 -0.1600
    CG_2_2_4   PROD_YIELD_KERO_4 -0.1200
    CG_2_2_4   PROD_YIELD_GASOIL_4 -0.2800
    CG_2_2_4   PROD_YIELD_VGO_4 -0.2400
    CG_2_2_4   PROD_YIELD_RESID_4 -0.2000
    CG_2_2_5   COST      1.50      INV_BAL_2_5 1.0
    CG_2_2_5   CDU_CAP_2_5 1.0
    CG_2_2_5   PROD_YIELD_NAPH_5 -0.1600
    CG_2_2_5   PROD_YIELD_KERO_5 -0.1200
    CG_2_2_5   PROD_YIELD_GASOIL_5 -0.2800
    CG_2_2_5   PROD_YIELD_VGO_5 -0.2400
    CG_2_2_5   PROD_YIELD_RESID_5 -0.2000
    CG_2_2_6   COST      1.50      INV_BAL_2_6 1.0
    CG_2_2_6   CDU_CAP_2_6 1.0
    CG_2_2_6   PROD_YIELD_NAPH_6 -0.1600
    CG_2_2_6   PROD_YIELD_KERO_6 -0.1200
    CG_2_2_6   PROD_YIELD_GASOIL_6 -0.2800
    CG_2_2_6   PROD_YIELD_VGO_6 -0.2400
    CG_2_2_6   PROD_YIELD_RESID_6 -0.2000
    CG_3_0_0   COST      1.50      INV_BAL_3_0 1.0
    CG_3_0_0   CDU_CAP_0_0 1.0
    CG_3_0_0   PROD_YIELD_NAPH_0 -0.1000
    CG_3_0_0   PROD_YIELD_KERO_0 -0.0800
    CG_3_0_0   PROD_YIELD_GASOIL_0 -0.2200
    CG_3_0_0   PROD_YIELD_VGO_0 -0.2500
    CG_3_0_0   PROD_YIELD_RESID_0 -0.3500
    CG_3_0_1   COST      1.50      INV_BAL_3_1 1.0
    CG_3_0_1   CDU_CAP_0_1 1.0
    CG_3_0_1   PROD_YIELD_NAPH_1 -0.1000
    CG_3_0_1   PROD_YIELD_KERO_1 -0.0800
    CG_3_0_1   PROD_YIELD_GASOIL_1 -0.2200
    CG_3_0_1   PROD_YIELD_VGO_1 -0.2500
    CG_3_0_1   PROD_YIELD_RESID_1 -0.3500
    CG_3_0_2   COST      1.50      INV_BAL_3_2 1.0
    CG_3_0_2   CDU_CAP_0_2 1.0
    CG_3_0_2   PROD_YIELD_NAPH_2 -0.1000
    CG_3_0_2   PROD_YIELD_KERO_2 -0.0800
    CG_3_0_2   PROD_YIELD_GASOIL_2 -0.2200
    CG_3_0_2   PROD_YIELD_VGO_2 -0.2500
    CG_3_0_2   PROD_YIELD_RESID_2 -0.3500
    CG_3_0_3   COST      1.50      INV_BAL_3_3 1.0
    CG_3_0_3   CDU_CAP_0_3 1.0
    CG_3_0_3   PROD_YIELD_NAPH_3 -0.1000
    CG_3_0_3   PROD_YIELD_KERO_3 -0.0800
    CG_3_0_3   PROD_YIELD_GASOIL_3 -0.2200
    CG_3_0_3   PROD_YIELD_VGO_3 -0.2500
    CG_3_0_3   PROD_YIELD_RESID_3 -0.3500
    CG_3_0_4   COST      1.50      INV_BAL_3_4 1.0
    CG_3_0_4   CDU_CAP_0_4 1.0
    CG_3_0_4   PROD_YIELD_NAPH_4 -0.1000
    CG_3_0_4   PROD_YIELD_KERO_4 -0.0800
    CG_3_0_4   PROD_YIELD_GASOIL_4 -0.2200
    CG_3_0_4   PROD_YIELD_VGO_4 -0.2500
    CG_3_0_4   PROD_YIELD_RESID_4 -0.3500
    CG_3_0_5   COST      1.50      INV_BAL_3_5 1.0
    CG_3_0_5   CDU_CAP_0_5 1.0
    CG_3_0_5   PROD_YIELD_NAPH_5 -0.1000
    CG_3_0_5   PROD_YIELD_KERO_5 -0.0800
    CG_3_0_5   PROD_YIELD_GASOIL_5 -0.2200
    CG_3_0_5   PROD_YIELD_VGO_5 -0.2500
    CG_3_0_5   PROD_YIELD_RESID_5 -0.3500
    CG_3_0_6   COST      1.50      INV_BAL_3_6 1.0
    CG_3_0_6   CDU_CAP_0_6 1.0
    CG_3_0_6   PROD_YIELD_NAPH_6 -0.1000
    CG_3_0_6   PROD_YIELD_KERO_6 -0.0800
    CG_3_0_6   PROD_YIELD_GASOIL_6 -0.2200
    CG_3_0_6   PROD_YIELD_VGO_6 -0.2500
    CG_3_0_6   PROD_YIELD_RESID_6 -0.3500
    CG_3_1_0   COST      1.50      INV_BAL_3_0 1.0
    CG_3_1_0   CDU_CAP_1_0 1.0
    CG_3_1_0   PROD_YIELD_NAPH_0 -0.1000
    CG_3_1_0   PROD_YIELD_KERO_0 -0.0800
    CG_3_1_0   PROD_YIELD_GASOIL_0 -0.2200
    CG_3_1_0   PROD_YIELD_VGO_0 -0.2500
    CG_3_1_0   PROD_YIELD_RESID_0 -0.3500
    CG_3_1_1   COST      1.50      INV_BAL_3_1 1.0
    CG_3_1_1   CDU_CAP_1_1 1.0
    CG_3_1_1   PROD_YIELD_NAPH_1 -0.1000
    CG_3_1_1   PROD_YIELD_KERO_1 -0.0800
    CG_3_1_1   PROD_YIELD_GASOIL_1 -0.2200
    CG_3_1_1   PROD_YIELD_VGO_1 -0.2500
    CG_3_1_1   PROD_YIELD_RESID_1 -0.3500
    CG_3_1_2   COST      1.50      INV_BAL_3_2 1.0
    CG_3_1_2   CDU_CAP_1_2 1.0
    CG_3_1_2   PROD_YIELD_NAPH_2 -0.1000
    CG_3_1_2   PROD_YIELD_KERO_2 -0.0800
    CG_3_1_2   PROD_YIELD_GASOIL_2 -0.2200
    CG_3_1_2   PROD_YIELD_VGO_2 -0.2500
    CG_3_1_2   PROD_YIELD_RESID_2 -0.3500
    CG_3_1_3   COST      1.50      INV_BAL_3_3 1.0
    CG_3_1_3   CDU_CAP_1_3 1.0
    CG_3_1_3   PROD_YIELD_NAPH_3 -0.1000
    CG_3_1_3   PROD_YIELD_KERO_3 -0.0800
    CG_3_1_3   PROD_YIELD_GASOIL_3 -0.2200
    CG_3_1_3   PROD_YIELD_VGO_3 -0.2500
    CG_3_1_3   PROD_YIELD_RESID_3 -0.3500
    CG_3_1_4   COST      1.50      INV_BAL_3_4 1.0
    CG_3_1_4   CDU_CAP_1_4 1.0
    CG_3_1_4   PROD_YIELD_NAPH_4 -0.1000
    CG_3_1_4   PROD_YIELD_KERO_4 -0.0800
    CG_3_1_4   PROD_YIELD_GASOIL_4 -0.2200
    CG_3_1_4   PROD_YIELD_VGO_4 -0.2500
    CG_3_1_4   PROD_YIELD_RESID_4 -0.3500
    CG_3_1_5   COST      1.50      INV_BAL_3_5 1.0
    CG_3_1_5   CDU_CAP_1_5 1.0
    CG_3_1_5   PROD_YIELD_NAPH_5 -0.1000
    CG_3_1_5   PROD_YIELD_KERO_5 -0.0800
    CG_3_1_5   PROD_YIELD_GASOIL_5 -0.2200
    CG_3_1_5   PROD_YIELD_VGO_5 -0.2500
    CG_3_1_5   PROD_YIELD_RESID_5 -0.3500
    CG_3_1_6   COST      1.50      INV_BAL_3_6 1.0
    CG_3_1_6   CDU_CAP_1_6 1.0
    CG_3_1_6   PROD_YIELD_NAPH_6 -0.1000
    CG_3_1_6   PROD_YIELD_KERO_6 -0.0800
    CG_3_1_6   PROD_YIELD_GASOIL_6 -0.2200
    CG_3_1_6   PROD_YIELD_VGO_6 -0.2500
    CG_3_1_6   PROD_YIELD_RESID_6 -0.3500
    CG_3_2_0   COST      1.50      INV_BAL_3_0 1.0
    CG_3_2_0   CDU_CAP_2_0 1.0
    CG_3_2_0   PROD_YIELD_NAPH_0 -0.1000
    CG_3_2_0   PROD_YIELD_KERO_0 -0.0800
    CG_3_2_0   PROD_YIELD_GASOIL_0 -0.2200
    CG_3_2_0   PROD_YIELD_VGO_0 -0.2500
    CG_3_2_0   PROD_YIELD_RESID_0 -0.3500
    CG_3_2_1   COST      1.50      INV_BAL_3_1 1.0
    CG_3_2_1   CDU_CAP_2_1 1.0
    CG_3_2_1   PROD_YIELD_NAPH_1 -0.1000
    CG_3_2_1   PROD_YIELD_KERO_1 -0.0800
    CG_3_2_1   PROD_YIELD_GASOIL_1 -0.2200
    CG_3_2_1   PROD_YIELD_VGO_1 -0.2500
    CG_3_2_1   PROD_YIELD_RESID_1 -0.3500
    CG_3_2_2   COST      1.50      INV_BAL_3_2 1.0
    CG_3_2_2   CDU_CAP_2_2 1.0
    CG_3_2_2   PROD_YIELD_NAPH_2 -0.1000
    CG_3_2_2   PROD_YIELD_KERO_2 -0.0800
    CG_3_2_2   PROD_YIELD_GASOIL_2 -0.2200
    CG_3_2_2   PROD_YIELD_VGO_2 -0.2500
    CG_3_2_2   PROD_YIELD_RESID_2 -0.3500
    CG_3_2_3   COST      1.50      INV_BAL_3_3 1.0
    CG_3_2_3   CDU_CAP_2_3 1.0
    CG_3_2_3   PROD_YIELD_NAPH_3 -0.1000
    CG_3_2_3   PROD_YIELD_KERO_3 -0.0800
    CG_3_2_3   PROD_YIELD_GASOIL_3 -0.2200
    CG_3_2_3   PROD_YIELD_VGO_3 -0.2500
    CG_3_2_3   PROD_YIELD_RESID_3 -0.3500
    CG_3_2_4   COST      1.50      INV_BAL_3_4 1.0
    CG_3_2_4   CDU_CAP_2_4 1.0
    CG_3_2_4   PROD_YIELD_NAPH_4 -0.1000
    CG_3_2_4   PROD_YIELD_KERO_4 -0.0800
    CG_3_2_4   PROD_YIELD_GASOIL_4 -0.2200
    CG_3_2_4   PROD_YIELD_VGO_4 -0.2500
    CG_3_2_4   PROD_YIELD_RESID_4 -0.3500
    CG_3_2_5   COST      1.50      INV_BAL_3_5 1.0
    CG_3_2_5   CDU_CAP_2_5 1.0
    CG_3_2_5   PROD_YIELD_NAPH_5 -0.1000
    CG_3_2_5   PROD_YIELD_KERO_5 -0.0800
    CG_3_2_5   PROD_YIELD_GASOIL_5 -0.2200
    CG_3_2_5   PROD_YIELD_VGO_5 -0.2500
    CG_3_2_5   PROD_YIELD_RESID_5 -0.3500
    CG_3_2_6   COST      1.50      INV_BAL_3_6 1.0
    CG_3_2_6   CDU_CAP_2_6 1.0
    CG_3_2_6   PROD_YIELD_NAPH_6 -0.1000
    CG_3_2_6   PROD_YIELD_KERO_6 -0.0800
    CG_3_2_6   PROD_YIELD_GASOIL_6 -0.2200
    CG_3_2_6   PROD_YIELD_VGO_6 -0.2500
    CG_3_2_6   PROD_YIELD_RESID_6 -0.3500
    CG_4_0_0   COST      1.50      INV_BAL_4_0 1.0
    CG_4_0_0   CDU_CAP_0_0 1.0
    CG_4_0_0   PROD_YIELD_NAPH_0 -0.2600
    CG_4_0_0   PROD_YIELD_KERO_0 -0.1800
    CG_4_0_0   PROD_YIELD_GASOIL_0 -0.3400
    CG_4_0_0   PROD_YIELD_VGO_0 -0.1400
    CG_4_0_0   PROD_YIELD_RESID_0 -0.0800
    CG_4_0_1   COST      1.50      INV_BAL_4_1 1.0
    CG_4_0_1   CDU_CAP_0_1 1.0
    CG_4_0_1   PROD_YIELD_NAPH_1 -0.2600
    CG_4_0_1   PROD_YIELD_KERO_1 -0.1800
    CG_4_0_1   PROD_YIELD_GASOIL_1 -0.3400
    CG_4_0_1   PROD_YIELD_VGO_1 -0.1400
    CG_4_0_1   PROD_YIELD_RESID_1 -0.0800
    CG_4_0_2   COST      1.50      INV_BAL_4_2 1.0
    CG_4_0_2   CDU_CAP_0_2 1.0
    CG_4_0_2   PROD_YIELD_NAPH_2 -0.2600
    CG_4_0_2   PROD_YIELD_KERO_2 -0.1800
    CG_4_0_2   PROD_YIELD_GASOIL_2 -0.3400
    CG_4_0_2   PROD_YIELD_VGO_2 -0.1400
    CG_4_0_2   PROD_YIELD_RESID_2 -0.0800
    CG_4_0_3   COST      1.50      INV_BAL_4_3 1.0
    CG_4_0_3   CDU_CAP_0_3 1.0
    CG_4_0_3   PROD_YIELD_NAPH_3 -0.2600
    CG_4_0_3   PROD_YIELD_KERO_3 -0.1800
    CG_4_0_3   PROD_YIELD_GASOIL_3 -0.3400
    CG_4_0_3   PROD_YIELD_VGO_3 -0.1400
    CG_4_0_3   PROD_YIELD_RESID_3 -0.0800
    CG_4_0_4   COST      1.50      INV_BAL_4_4 1.0
    CG_4_0_4   CDU_CAP_0_4 1.0
    CG_4_0_4   PROD_YIELD_NAPH_4 -0.2600
    CG_4_0_4   PROD_YIELD_KERO_4 -0.1800
    CG_4_0_4   PROD_YIELD_GASOIL_4 -0.3400
    CG_4_0_4   PROD_YIELD_VGO_4 -0.1400
    CG_4_0_4   PROD_YIELD_RESID_4 -0.0800
    CG_4_0_5   COST      1.50      INV_BAL_4_5 1.0
    CG_4_0_5   CDU_CAP_0_5 1.0
    CG_4_0_5   PROD_YIELD_NAPH_5 -0.2600
    CG_4_0_5   PROD_YIELD_KERO_5 -0.1800
    CG_4_0_5   PROD_YIELD_GASOIL_5 -0.3400
    CG_4_0_5   PROD_YIELD_VGO_5 -0.1400
    CG_4_0_5   PROD_YIELD_RESID_5 -0.0800
    CG_4_0_6   COST      1.50      INV_BAL_4_6 1.0
    CG_4_0_6   CDU_CAP_0_6 1.0
    CG_4_0_6   PROD_YIELD_NAPH_6 -0.2600
    CG_4_0_6   PROD_YIELD_KERO_6 -0.1800
    CG_4_0_6   PROD_YIELD_GASOIL_6 -0.3400
    CG_4_0_6   PROD_YIELD_VGO_6 -0.1400
    CG_4_0_6   PROD_YIELD_RESID_6 -0.0800
    CG_4_1_0   COST      1.50      INV_BAL_4_0 1.0
    CG_4_1_0   CDU_CAP_1_0 1.0
    CG_4_1_0   PROD_YIELD_NAPH_0 -0.2600
    CG_4_1_0   PROD_YIELD_KERO_0 -0.1800
    CG_4_1_0   PROD_YIELD_GASOIL_0 -0.3400
    CG_4_1_0   PROD_YIELD_VGO_0 -0.1400
    CG_4_1_0   PROD_YIELD_RESID_0 -0.0800
    CG_4_1_1   COST      1.50      INV_BAL_4_1 1.0
    CG_4_1_1   CDU_CAP_1_1 1.0
    CG_4_1_1   PROD_YIELD_NAPH_1 -0.2600
    CG_4_1_1   PROD_YIELD_KERO_1 -0.1800
    CG_4_1_1   PROD_YIELD_GASOIL_1 -0.3400
    CG_4_1_1   PROD_YIELD_VGO_1 -0.1400
    CG_4_1_1   PROD_YIELD_RESID_1 -0.0800
    CG_4_1_2   COST      1.50      INV_BAL_4_2 1.0
    CG_4_1_2   CDU_CAP_1_2 1.0
    CG_4_1_2   PROD_YIELD_NAPH_2 -0.2600
    CG_4_1_2   PROD_YIELD_KERO_2 -0.1800
    CG_4_1_2   PROD_YIELD_GASOIL_2 -0.3400
    CG_4_1_2   PROD_YIELD_VGO_2 -0.1400
    CG_4_1_2   PROD_YIELD_RESID_2 -0.0800
    CG_4_1_3   COST      1.50      INV_BAL_4_3 1.0
    CG_4_1_3   CDU_CAP_1_3 1.0
    CG_4_1_3   PROD_YIELD_NAPH_3 -0.2600
    CG_4_1_3   PROD_YIELD_KERO_3 -0.1800
    CG_4_1_3   PROD_YIELD_GASOIL_3 -0.3400
    CG_4_1_3   PROD_YIELD_VGO_3 -0.1400
    CG_4_1_3   PROD_YIELD_RESID_3 -0.0800
    CG_4_1_4   COST      1.50      INV_BAL_4_4 1.0
    CG_4_1_4   CDU_CAP_1_4 1.0
    CG_4_1_4   PROD_YIELD_NAPH_4 -0.2600
    CG_4_1_4   PROD_YIELD_KERO_4 -0.1800
    CG_4_1_4   PROD_YIELD_GASOIL_4 -0.3400
    CG_4_1_4   PROD_YIELD_VGO_4 -0.1400
    CG_4_1_4   PROD_YIELD_RESID_4 -0.0800
    CG_4_1_5   COST      1.50      INV_BAL_4_5 1.0
    CG_4_1_5   CDU_CAP_1_5 1.0
    CG_4_1_5   PROD_YIELD_NAPH_5 -0.2600
    CG_4_1_5   PROD_YIELD_KERO_5 -0.1800
    CG_4_1_5   PROD_YIELD_GASOIL_5 -0.3400
    CG_4_1_5   PROD_YIELD_VGO_5 -0.1400
    CG_4_1_5   PROD_YIELD_RESID_5 -0.0800
    CG_4_1_6   COST      1.50      INV_BAL_4_6 1.0
    CG_4_1_6   CDU_CAP_1_6 1.0
    CG_4_1_6   PROD_YIELD_NAPH_6 -0.2600
    CG_4_1_6   PROD_YIELD_KERO_6 -0.1800
    CG_4_1_6   PROD_YIELD_GASOIL_6 -0.3400
    CG_4_1_6   PROD_YIELD_VGO_6 -0.1400
    CG_4_1_6   PROD_YIELD_RESID_6 -0.0800
    CG_4_2_0   COST      1.50      INV_BAL_4_0 1.0
    CG_4_2_0   CDU_CAP_2_0 1.0
    CG_4_2_0   PROD_YIELD_NAPH_0 -0.2600
    CG_4_2_0   PROD_YIELD_KERO_0 -0.1800
    CG_4_2_0   PROD_YIELD_GASOIL_0 -0.3400
    CG_4_2_0   PROD_YIELD_VGO_0 -0.1400
    CG_4_2_0   PROD_YIELD_RESID_0 -0.0800
    CG_4_2_1   COST      1.50      INV_BAL_4_1 1.0
    CG_4_2_1   CDU_CAP_2_1 1.0
    CG_4_2_1   PROD_YIELD_NAPH_1 -0.2600
    CG_4_2_1   PROD_YIELD_KERO_1 -0.1800
    CG_4_2_1   PROD_YIELD_GASOIL_1 -0.3400
    CG_4_2_1   PROD_YIELD_VGO_1 -0.1400
    CG_4_2_1   PROD_YIELD_RESID_1 -0.0800
    CG_4_2_2   COST      1.50      INV_BAL_4_2 1.0
    CG_4_2_2   CDU_CAP_2_2 1.0
    CG_4_2_2   PROD_YIELD_NAPH_2 -0.2600
    CG_4_2_2   PROD_YIELD_KERO_2 -0.1800
    CG_4_2_2   PROD_YIELD_GASOIL_2 -0.3400
    CG_4_2_2   PROD_YIELD_VGO_2 -0.1400
    CG_4_2_2   PROD_YIELD_RESID_2 -0.0800
    CG_4_2_3   COST      1.50      INV_BAL_4_3 1.0
    CG_4_2_3   CDU_CAP_2_3 1.0
    CG_4_2_3   PROD_YIELD_NAPH_3 -0.2600
    CG_4_2_3   PROD_YIELD_KERO_3 -0.1800
    CG_4_2_3   PROD_YIELD_GASOIL_3 -0.3400
    CG_4_2_3   PROD_YIELD_VGO_3 -0.1400
    CG_4_2_3   PROD_YIELD_RESID_3 -0.0800
    CG_4_2_4   COST      1.50      INV_BAL_4_4 1.0
    CG_4_2_4   CDU_CAP_2_4 1.0
    CG_4_2_4   PROD_YIELD_NAPH_4 -0.2600
    CG_4_2_4   PROD_YIELD_KERO_4 -0.1800
    CG_4_2_4   PROD_YIELD_GASOIL_4 -0.3400
    CG_4_2_4   PROD_YIELD_VGO_4 -0.1400
    CG_4_2_4   PROD_YIELD_RESID_4 -0.0800
    CG_4_2_5   COST      1.50      INV_BAL_4_5 1.0
    CG_4_2_5   CDU_CAP_2_5 1.0
    CG_4_2_5   PROD_YIELD_NAPH_5 -0.2600
    CG_4_2_5   PROD_YIELD_KERO_5 -0.1800
    CG_4_2_5   PROD_YIELD_GASOIL_5 -0.3400
    CG_4_2_5   PROD_YIELD_VGO_5 -0.1400
    CG_4_2_5   PROD_YIELD_RESID_5 -0.0800
    CG_4_2_6   COST      1.50      INV_BAL_4_6 1.0
    CG_4_2_6   CDU_CAP_2_6 1.0
    CG_4_2_6   PROD_YIELD_NAPH_6 -0.2600
    CG_4_2_6   PROD_YIELD_KERO_6 -0.1800
    CG_4_2_6   PROD_YIELD_GASOIL_6 -0.3400
    CG_4_2_6   PROD_YIELD_VGO_6 -0.1400
    CG_4_2_6   PROD_YIELD_RESID_6 -0.0800
    CG_5_0_0   COST      1.50      INV_BAL_5_0 1.0
    CG_5_0_0   CDU_CAP_0_0 1.0
    CG_5_0_0   PROD_YIELD_NAPH_0 -0.2200
    CG_5_0_0   PROD_YIELD_KERO_0 -0.1600
    CG_5_0_0   PROD_YIELD_GASOIL_0 -0.3200
    CG_5_0_0   PROD_YIELD_VGO_0 -0.1800
    CG_5_0_0   PROD_YIELD_RESID_0 -0.1200
    CG_5_0_1   COST      1.50      INV_BAL_5_1 1.0
    CG_5_0_1   CDU_CAP_0_1 1.0
    CG_5_0_1   PROD_YIELD_NAPH_1 -0.2200
    CG_5_0_1   PROD_YIELD_KERO_1 -0.1600
    CG_5_0_1   PROD_YIELD_GASOIL_1 -0.3200
    CG_5_0_1   PROD_YIELD_VGO_1 -0.1800
    CG_5_0_1   PROD_YIELD_RESID_1 -0.1200
    CG_5_0_2   COST      1.50      INV_BAL_5_2 1.0
    CG_5_0_2   CDU_CAP_0_2 1.0
    CG_5_0_2   PROD_YIELD_NAPH_2 -0.2200
    CG_5_0_2   PROD_YIELD_KERO_2 -0.1600
    CG_5_0_2   PROD_YIELD_GASOIL_2 -0.3200
    CG_5_0_2   PROD_YIELD_VGO_2 -0.1800
    CG_5_0_2   PROD_YIELD_RESID_2 -0.1200
    CG_5_0_3   COST      1.50      INV_BAL_5_3 1.0
    CG_5_0_3   CDU_CAP_0_3 1.0
    CG_5_0_3   PROD_YIELD_NAPH_3 -0.2200
    CG_5_0_3   PROD_YIELD_KERO_3 -0.1600
    CG_5_0_3   PROD_YIELD_GASOIL_3 -0.3200
    CG_5_0_3   PROD_YIELD_VGO_3 -0.1800
    CG_5_0_3   PROD_YIELD_RESID_3 -0.1200
    CG_5_0_4   COST      1.50      INV_BAL_5_4 1.0
    CG_5_0_4   CDU_CAP_0_4 1.0
    CG_5_0_4   PROD_YIELD_NAPH_4 -0.2200
    CG_5_0_4   PROD_YIELD_KERO_4 -0.1600
    CG_5_0_4   PROD_YIELD_GASOIL_4 -0.3200
    CG_5_0_4   PROD_YIELD_VGO_4 -0.1800
    CG_5_0_4   PROD_YIELD_RESID_4 -0.1200
    CG_5_0_5   COST      1.50      INV_BAL_5_5 1.0
    CG_5_0_5   CDU_CAP_0_5 1.0
    CG_5_0_5   PROD_YIELD_NAPH_5 -0.2200
    CG_5_0_5   PROD_YIELD_KERO_5 -0.1600
    CG_5_0_5   PROD_YIELD_GASOIL_5 -0.3200
    CG_5_0_5   PROD_YIELD_VGO_5 -0.1800
    CG_5_0_5   PROD_YIELD_RESID_5 -0.1200
    CG_5_0_6   COST      1.50      INV_BAL_5_6 1.0
    CG_5_0_6   CDU_CAP_0_6 1.0
    CG_5_0_6   PROD_YIELD_NAPH_6 -0.2200
    CG_5_0_6   PROD_YIELD_KERO_6 -0.1600
    CG_5_0_6   PROD_YIELD_GASOIL_6 -0.3200
    CG_5_0_6   PROD_YIELD_VGO_6 -0.1800
    CG_5_0_6   PROD_YIELD_RESID_6 -0.1200
    CG_5_1_0   COST      1.50      INV_BAL_5_0 1.0
    CG_5_1_0   CDU_CAP_1_0 1.0
    CG_5_1_0   PROD_YIELD_NAPH_0 -0.2200
    CG_5_1_0   PROD_YIELD_KERO_0 -0.1600
    CG_5_1_0   PROD_YIELD_GASOIL_0 -0.3200
    CG_5_1_0   PROD_YIELD_VGO_0 -0.1800
    CG_5_1_0   PROD_YIELD_RESID_0 -0.1200
    CG_5_1_1   COST      1.50      INV_BAL_5_1 1.0
    CG_5_1_1   CDU_CAP_1_1 1.0
    CG_5_1_1   PROD_YIELD_NAPH_1 -0.2200
    CG_5_1_1   PROD_YIELD_KERO_1 -0.1600
    CG_5_1_1   PROD_YIELD_GASOIL_1 -0.3200
    CG_5_1_1   PROD_YIELD_VGO_1 -0.1800
    CG_5_1_1   PROD_YIELD_RESID_1 -0.1200
    CG_5_1_2   COST      1.50      INV_BAL_5_2 1.0
    CG_5_1_2   CDU_CAP_1_2 1.0
    CG_5_1_2   PROD_YIELD_NAPH_2 -0.2200
    CG_5_1_2   PROD_YIELD_KERO_2 -0.1600
    CG_5_1_2   PROD_YIELD_GASOIL_2 -0.3200
    CG_5_1_2   PROD_YIELD_VGO_2 -0.1800
    CG_5_1_2   PROD_YIELD_RESID_2 -0.1200
    CG_5_1_3   COST      1.50      INV_BAL_5_3 1.0
    CG_5_1_3   CDU_CAP_1_3 1.0
    CG_5_1_3   PROD_YIELD_NAPH_3 -0.2200
    CG_5_1_3   PROD_YIELD_KERO_3 -0.1600
    CG_5_1_3   PROD_YIELD_GASOIL_3 -0.3200
    CG_5_1_3   PROD_YIELD_VGO_3 -0.1800
    CG_5_1_3   PROD_YIELD_RESID_3 -0.1200
    CG_5_1_4   COST      1.50      INV_BAL_5_4 1.0
    CG_5_1_4   CDU_CAP_1_4 1.0
    CG_5_1_4   PROD_YIELD_NAPH_4 -0.2200
    CG_5_1_4   PROD_YIELD_KERO_4 -0.1600
    CG_5_1_4   PROD_YIELD_GASOIL_4 -0.3200
    CG_5_1_4   PROD_YIELD_VGO_4 -0.1800
    CG_5_1_4   PROD_YIELD_RESID_4 -0.1200
    CG_5_1_5   COST      1.50      INV_BAL_5_5 1.0
    CG_5_1_5   CDU_CAP_1_5 1.0
    CG_5_1_5   PROD_YIELD_NAPH_5 -0.2200
    CG_5_1_5   PROD_YIELD_KERO_5 -0.1600
    CG_5_1_5   PROD_YIELD_GASOIL_5 -0.3200
    CG_5_1_5   PROD_YIELD_VGO_5 -0.1800
    CG_5_1_5   PROD_YIELD_RESID_5 -0.1200
    CG_5_1_6   COST      1.50      INV_BAL_5_6 1.0
    CG_5_1_6   CDU_CAP_1_6 1.0
    CG_5_1_6   PROD_YIELD_NAPH_6 -0.2200
    CG_5_1_6   PROD_YIELD_KERO_6 -0.1600
    CG_5_1_6   PROD_YIELD_GASOIL_6 -0.3200
    CG_5_1_6   PROD_YIELD_VGO_6 -0.1800
    CG_5_1_6   PROD_YIELD_RESID_6 -0.1200
    CG_5_2_0   COST      1.50      INV_BAL_5_0 1.0
    CG_5_2_0   CDU_CAP_2_0 1.0
    CG_5_2_0   PROD_YIELD_NAPH_0 -0.2200
    CG_5_2_0   PROD_YIELD_KERO_0 -0.1600
    CG_5_2_0   PROD_YIELD_GASOIL_0 -0.3200
    CG_5_2_0   PROD_YIELD_VGO_0 -0.1800
    CG_5_2_0   PROD_YIELD_RESID_0 -0.1200
    CG_5_2_1   COST      1.50      INV_BAL_5_1 1.0
    CG_5_2_1   CDU_CAP_2_1 1.0
    CG_5_2_1   PROD_YIELD_NAPH_1 -0.2200
    CG_5_2_1   PROD_YIELD_KERO_1 -0.1600
    CG_5_2_1   PROD_YIELD_GASOIL_1 -0.3200
    CG_5_2_1   PROD_YIELD_VGO_1 -0.1800
    CG_5_2_1   PROD_YIELD_RESID_1 -0.1200
    CG_5_2_2   COST      1.50      INV_BAL_5_2 1.0
    CG_5_2_2   CDU_CAP_2_2 1.0
    CG_5_2_2   PROD_YIELD_NAPH_2 -0.2200
    CG_5_2_2   PROD_YIELD_KERO_2 -0.1600
    CG_5_2_2   PROD_YIELD_GASOIL_2 -0.3200
    CG_5_2_2   PROD_YIELD_VGO_2 -0.1800
    CG_5_2_2   PROD_YIELD_RESID_2 -0.1200
    CG_5_2_3   COST      1.50      INV_BAL_5_3 1.0
    CG_5_2_3   CDU_CAP_2_3 1.0
    CG_5_2_3   PROD_YIELD_NAPH_3 -0.2200
    CG_5_2_3   PROD_YIELD_KERO_3 -0.1600
    CG_5_2_3   PROD_YIELD_GASOIL_3 -0.3200
    CG_5_2_3   PROD_YIELD_VGO_3 -0.1800
    CG_5_2_3   PROD_YIELD_RESID_3 -0.1200
    CG_5_2_4   COST      1.50      INV_BAL_5_4 1.0
    CG_5_2_4   CDU_CAP_2_4 1.0
    CG_5_2_4   PROD_YIELD_NAPH_4 -0.2200
    CG_5_2_4   PROD_YIELD_KERO_4 -0.1600
    CG_5_2_4   PROD_YIELD_GASOIL_4 -0.3200
    CG_5_2_4   PROD_YIELD_VGO_4 -0.1800
    CG_5_2_4   PROD_YIELD_RESID_4 -0.1200
    CG_5_2_5   COST      1.50      INV_BAL_5_5 1.0
    CG_5_2_5   CDU_CAP_2_5 1.0
    CG_5_2_5   PROD_YIELD_NAPH_5 -0.2200
    CG_5_2_5   PROD_YIELD_KERO_5 -0.1600
    CG_5_2_5   PROD_YIELD_GASOIL_5 -0.3200
    CG_5_2_5   PROD_YIELD_VGO_5 -0.1800
    CG_5_2_5   PROD_YIELD_RESID_5 -0.1200
    CG_5_2_6   COST      1.50      INV_BAL_5_6 1.0
    CG_5_2_6   CDU_CAP_2_6 1.0
    CG_5_2_6   PROD_YIELD_NAPH_6 -0.2200
    CG_5_2_6   PROD_YIELD_KERO_6 -0.1600
    CG_5_2_6   PROD_YIELD_GASOIL_6 -0.3200
    CG_5_2_6   PROD_YIELD_VGO_6 -0.1800
    CG_5_2_6   PROD_YIELD_RESID_6 -0.1200
    CG_6_0_0   COST      1.50      INV_BAL_6_0 1.0
    CG_6_0_0   CDU_CAP_0_0 1.0
    CG_6_0_0   PROD_YIELD_NAPH_0 -0.1500
    CG_6_0_0   PROD_YIELD_KERO_0 -0.1300
    CG_6_0_0   PROD_YIELD_GASOIL_0 -0.2700
    CG_6_0_0   PROD_YIELD_VGO_0 -0.2300
    CG_6_0_0   PROD_YIELD_RESID_0 -0.2200
    CG_6_0_1   COST      1.50      INV_BAL_6_1 1.0
    CG_6_0_1   CDU_CAP_0_1 1.0
    CG_6_0_1   PROD_YIELD_NAPH_1 -0.1500
    CG_6_0_1   PROD_YIELD_KERO_1 -0.1300
    CG_6_0_1   PROD_YIELD_GASOIL_1 -0.2700
    CG_6_0_1   PROD_YIELD_VGO_1 -0.2300
    CG_6_0_1   PROD_YIELD_RESID_1 -0.2200
    CG_6_0_2   COST      1.50      INV_BAL_6_2 1.0
    CG_6_0_2   CDU_CAP_0_2 1.0
    CG_6_0_2   PROD_YIELD_NAPH_2 -0.1500
    CG_6_0_2   PROD_YIELD_KERO_2 -0.1300
    CG_6_0_2   PROD_YIELD_GASOIL_2 -0.2700
    CG_6_0_2   PROD_YIELD_VGO_2 -0.2300
    CG_6_0_2   PROD_YIELD_RESID_2 -0.2200
    CG_6_0_3   COST      1.50      INV_BAL_6_3 1.0
    CG_6_0_3   CDU_CAP_0_3 1.0
    CG_6_0_3   PROD_YIELD_NAPH_3 -0.1500
    CG_6_0_3   PROD_YIELD_KERO_3 -0.1300
    CG_6_0_3   PROD_YIELD_GASOIL_3 -0.2700
    CG_6_0_3   PROD_YIELD_VGO_3 -0.2300
    CG_6_0_3   PROD_YIELD_RESID_3 -0.2200
    CG_6_0_4   COST      1.50      INV_BAL_6_4 1.0
    CG_6_0_4   CDU_CAP_0_4 1.0
    CG_6_0_4   PROD_YIELD_NAPH_4 -0.1500
    CG_6_0_4   PROD_YIELD_KERO_4 -0.1300
    CG_6_0_4   PROD_YIELD_GASOIL_4 -0.2700
    CG_6_0_4   PROD_YIELD_VGO_4 -0.2300
    CG_6_0_4   PROD_YIELD_RESID_4 -0.2200
    CG_6_0_5   COST      1.50      INV_BAL_6_5 1.0
    CG_6_0_5   CDU_CAP_0_5 1.0
    CG_6_0_5   PROD_YIELD_NAPH_5 -0.1500
    CG_6_0_5   PROD_YIELD_KERO_5 -0.1300
    CG_6_0_5   PROD_YIELD_GASOIL_5 -0.2700
    CG_6_0_5   PROD_YIELD_VGO_5 -0.2300
    CG_6_0_5   PROD_YIELD_RESID_5 -0.2200
    CG_6_0_6   COST      1.50      INV_BAL_6_6 1.0
    CG_6_0_6   CDU_CAP_0_6 1.0
    CG_6_0_6   PROD_YIELD_NAPH_6 -0.1500
    CG_6_0_6   PROD_YIELD_KERO_6 -0.1300
    CG_6_0_6   PROD_YIELD_GASOIL_6 -0.2700
    CG_6_0_6   PROD_YIELD_VGO_6 -0.2300
    CG_6_0_6   PROD_YIELD_RESID_6 -0.2200
    CG_6_1_0   COST      1.50      INV_BAL_6_0 1.0
    CG_6_1_0   CDU_CAP_1_0 1.0
    CG_6_1_0   PROD_YIELD_NAPH_0 -0.1500
    CG_6_1_0   PROD_YIELD_KERO_0 -0.1300
    CG_6_1_0   PROD_YIELD_GASOIL_0 -0.2700
    CG_6_1_0   PROD_YIELD_VGO_0 -0.2300
    CG_6_1_0   PROD_YIELD_RESID_0 -0.2200
    CG_6_1_1   COST      1.50      INV_BAL_6_1 1.0
    CG_6_1_1   CDU_CAP_1_1 1.0
    CG_6_1_1   PROD_YIELD_NAPH_1 -0.1500
    CG_6_1_1   PROD_YIELD_KERO_1 -0.1300
    CG_6_1_1   PROD_YIELD_GASOIL_1 -0.2700
    CG_6_1_1   PROD_YIELD_VGO_1 -0.2300
    CG_6_1_1   PROD_YIELD_RESID_1 -0.2200
    CG_6_1_2   COST      1.50      INV_BAL_6_2 1.0
    CG_6_1_2   CDU_CAP_1_2 1.0
    CG_6_1_2   PROD_YIELD_NAPH_2 -0.1500
    CG_6_1_2   PROD_YIELD_KERO_2 -0.1300
    CG_6_1_2   PROD_YIELD_GASOIL_2 -0.2700
    CG_6_1_2   PROD_YIELD_VGO_2 -0.2300
    CG_6_1_2   PROD_YIELD_RESID_2 -0.2200
    CG_6_1_3   COST      1.50      INV_BAL_6_3 1.0
    CG_6_1_3   CDU_CAP_1_3 1.0
    CG_6_1_3   PROD_YIELD_NAPH_3 -0.1500
    CG_6_1_3   PROD_YIELD_KERO_3 -0.1300
    CG_6_1_3   PROD_YIELD_GASOIL_3 -0.2700
    CG_6_1_3   PROD_YIELD_VGO_3 -0.2300
    CG_6_1_3   PROD_YIELD_RESID_3 -0.2200
    CG_6_1_4   COST      1.50      INV_BAL_6_4 1.0
    CG_6_1_4   CDU_CAP_1_4 1.0
    CG_6_1_4   PROD_YIELD_NAPH_4 -0.1500
    CG_6_1_4   PROD_YIELD_KERO_4 -0.1300
    CG_6_1_4   PROD_YIELD_GASOIL_4 -0.2700
    CG_6_1_4   PROD_YIELD_VGO_4 -0.2300
    CG_6_1_4   PROD_YIELD_RESID_4 -0.2200
    CG_6_1_5   COST      1.50      INV_BAL_6_5 1.0
    CG_6_1_5   CDU_CAP_1_5 1.0
    CG_6_1_5   PROD_YIELD_NAPH_5 -0.1500
    CG_6_1_5   PROD_YIELD_KERO_5 -0.1300
    CG_6_1_5   PROD_YIELD_GASOIL_5 -0.2700
    CG_6_1_5   PROD_YIELD_VGO_5 -0.2300
    CG_6_1_5   PROD_YIELD_RESID_5 -0.2200
    CG_6_1_6   COST      1.50      INV_BAL_6_6 1.0
    CG_6_1_6   CDU_CAP_1_6 1.0
    CG_6_1_6   PROD_YIELD_NAPH_6 -0.1500
    CG_6_1_6   PROD_YIELD_KERO_6 -0.1300
    CG_6_1_6   PROD_YIELD_GASOIL_6 -0.2700
    CG_6_1_6   PROD_YIELD_VGO_6 -0.2300
    CG_6_1_6   PROD_YIELD_RESID_6 -0.2200
    CG_6_2_0   COST      1.50      INV_BAL_6_0 1.0
    CG_6_2_0   CDU_CAP_2_0 1.0
    CG_6_2_0   PROD_YIELD_NAPH_0 -0.1500
    CG_6_2_0   PROD_YIELD_KERO_0 -0.1300
    CG_6_2_0   PROD_YIELD_GASOIL_0 -0.2700
    CG_6_2_0   PROD_YIELD_VGO_0 -0.2300
    CG_6_2_0   PROD_YIELD_RESID_0 -0.2200
    CG_6_2_1   COST      1.50      INV_BAL_6_1 1.0
    CG_6_2_1   CDU_CAP_2_1 1.0
    CG_6_2_1   PROD_YIELD_NAPH_1 -0.1500
    CG_6_2_1   PROD_YIELD_KERO_1 -0.1300
    CG_6_2_1   PROD_YIELD_GASOIL_1 -0.2700
    CG_6_2_1   PROD_YIELD_VGO_1 -0.2300
    CG_6_2_1   PROD_YIELD_RESID_1 -0.2200
    CG_6_2_2   COST      1.50      INV_BAL_6_2 1.0
    CG_6_2_2   CDU_CAP_2_2 1.0
    CG_6_2_2   PROD_YIELD_NAPH_2 -0.1500
    CG_6_2_2   PROD_YIELD_KERO_2 -0.1300
    CG_6_2_2   PROD_YIELD_GASOIL_2 -0.2700
    CG_6_2_2   PROD_YIELD_VGO_2 -0.2300
    CG_6_2_2   PROD_YIELD_RESID_2 -0.2200
    CG_6_2_3   COST      1.50      INV_BAL_6_3 1.0
    CG_6_2_3   CDU_CAP_2_3 1.0
    CG_6_2_3   PROD_YIELD_NAPH_3 -0.1500
    CG_6_2_3   PROD_YIELD_KERO_3 -0.1300
    CG_6_2_3   PROD_YIELD_GASOIL_3 -0.2700
    CG_6_2_3   PROD_YIELD_VGO_3 -0.2300
    CG_6_2_3   PROD_YIELD_RESID_3 -0.2200
    CG_6_2_4   COST      1.50      INV_BAL_6_4 1.0
    CG_6_2_4   CDU_CAP_2_4 1.0
    CG_6_2_4   PROD_YIELD_NAPH_4 -0.1500
    CG_6_2_4   PROD_YIELD_KERO_4 -0.1300
    CG_6_2_4   PROD_YIELD_GASOIL_4 -0.2700
    CG_6_2_4   PROD_YIELD_VGO_4 -0.2300
    CG_6_2_4   PROD_YIELD_RESID_4 -0.2200
    CG_6_2_5   COST      1.50      INV_BAL_6_5 1.0
    CG_6_2_5   CDU_CAP_2_5 1.0
    CG_6_2_5   PROD_YIELD_NAPH_5 -0.1500
    CG_6_2_5   PROD_YIELD_KERO_5 -0.1300
    CG_6_2_5   PROD_YIELD_GASOIL_5 -0.2700
    CG_6_2_5   PROD_YIELD_VGO_5 -0.2300
    CG_6_2_5   PROD_YIELD_RESID_5 -0.2200
    CG_6_2_6   COST      1.50      INV_BAL_6_6 1.0
    CG_6_2_6   CDU_CAP_2_6 1.0
    CG_6_2_6   PROD_YIELD_NAPH_6 -0.1500
    CG_6_2_6   PROD_YIELD_KERO_6 -0.1300
    CG_6_2_6   PROD_YIELD_GASOIL_6 -0.2700
    CG_6_2_6   PROD_YIELD_VGO_6 -0.2300
    CG_6_2_6   PROD_YIELD_RESID_6 -0.2200
    CG_7_0_0   COST      1.50      INV_BAL_7_0 1.0
    CG_7_0_0   CDU_CAP_0_0 1.0
    CG_7_0_0   PROD_YIELD_NAPH_0 -0.2400
    CG_7_0_0   PROD_YIELD_KERO_0 -0.1700
    CG_7_0_0   PROD_YIELD_GASOIL_0 -0.3300
    CG_7_0_0   PROD_YIELD_VGO_0 -0.1600
    CG_7_0_0   PROD_YIELD_RESID_0 -0.1000
    CG_7_0_1   COST      1.50      INV_BAL_7_1 1.0
    CG_7_0_1   CDU_CAP_0_1 1.0
    CG_7_0_1   PROD_YIELD_NAPH_1 -0.2400
    CG_7_0_1   PROD_YIELD_KERO_1 -0.1700
    CG_7_0_1   PROD_YIELD_GASOIL_1 -0.3300
    CG_7_0_1   PROD_YIELD_VGO_1 -0.1600
    CG_7_0_1   PROD_YIELD_RESID_1 -0.1000
    CG_7_0_2   COST      1.50      INV_BAL_7_2 1.0
    CG_7_0_2   CDU_CAP_0_2 1.0
    CG_7_0_2   PROD_YIELD_NAPH_2 -0.2400
    CG_7_0_2   PROD_YIELD_KERO_2 -0.1700
    CG_7_0_2   PROD_YIELD_GASOIL_2 -0.3300
    CG_7_0_2   PROD_YIELD_VGO_2 -0.1600
    CG_7_0_2   PROD_YIELD_RESID_2 -0.1000
    CG_7_0_3   COST      1.50      INV_BAL_7_3 1.0
    CG_7_0_3   CDU_CAP_0_3 1.0
    CG_7_0_3   PROD_YIELD_NAPH_3 -0.2400
    CG_7_0_3   PROD_YIELD_KERO_3 -0.1700
    CG_7_0_3   PROD_YIELD_GASOIL_3 -0.3300
    CG_7_0_3   PROD_YIELD_VGO_3 -0.1600
    CG_7_0_3   PROD_YIELD_RESID_3 -0.1000
    CG_7_0_4   COST      1.50      INV_BAL_7_4 1.0
    CG_7_0_4   CDU_CAP_0_4 1.0
    CG_7_0_4   PROD_YIELD_NAPH_4 -0.2400
    CG_7_0_4   PROD_YIELD_KERO_4 -0.1700
    CG_7_0_4   PROD_YIELD_GASOIL_4 -0.3300
    CG_7_0_4   PROD_YIELD_VGO_4 -0.1600
    CG_7_0_4   PROD_YIELD_RESID_4 -0.1000
    CG_7_0_5   COST      1.50      INV_BAL_7_5 1.0
    CG_7_0_5   CDU_CAP_0_5 1.0
    CG_7_0_5   PROD_YIELD_NAPH_5 -0.2400
    CG_7_0_5   PROD_YIELD_KERO_5 -0.1700
    CG_7_0_5   PROD_YIELD_GASOIL_5 -0.3300
    CG_7_0_5   PROD_YIELD_VGO_5 -0.1600
    CG_7_0_5   PROD_YIELD_RESID_5 -0.1000
    CG_7_0_6   COST      1.50      INV_BAL_7_6 1.0
    CG_7_0_6   CDU_CAP_0_6 1.0
    CG_7_0_6   PROD_YIELD_NAPH_6 -0.2400
    CG_7_0_6   PROD_YIELD_KERO_6 -0.1700
    CG_7_0_6   PROD_YIELD_GASOIL_6 -0.3300
    CG_7_0_6   PROD_YIELD_VGO_6 -0.1600
    CG_7_0_6   PROD_YIELD_RESID_6 -0.1000
    CG_7_1_0   COST      1.50      INV_BAL_7_0 1.0
    CG_7_1_0   CDU_CAP_1_0 1.0
    CG_7_1_0   PROD_YIELD_NAPH_0 -0.2400
    CG_7_1_0   PROD_YIELD_KERO_0 -0.1700
    CG_7_1_0   PROD_YIELD_GASOIL_0 -0.3300
    CG_7_1_0   PROD_YIELD_VGO_0 -0.1600
    CG_7_1_0   PROD_YIELD_RESID_0 -0.1000
    CG_7_1_1   COST      1.50      INV_BAL_7_1 1.0
    CG_7_1_1   CDU_CAP_1_1 1.0
    CG_7_1_1   PROD_YIELD_NAPH_1 -0.2400
    CG_7_1_1   PROD_YIELD_KERO_1 -0.1700
    CG_7_1_1   PROD_YIELD_GASOIL_1 -0.3300
    CG_7_1_1   PROD_YIELD_VGO_1 -0.1600
    CG_7_1_1   PROD_YIELD_RESID_1 -0.1000
    CG_7_1_2   COST      1.50      INV_BAL_7_2 1.0
    CG_7_1_2   CDU_CAP_1_2 1.0
    CG_7_1_2   PROD_YIELD_NAPH_2 -0.2400
    CG_7_1_2   PROD_YIELD_KERO_2 -0.1700
    CG_7_1_2   PROD_YIELD_GASOIL_2 -0.3300
    CG_7_1_2   PROD_YIELD_VGO_2 -0.1600
    CG_7_1_2   PROD_YIELD_RESID_2 -0.1000
    CG_7_1_3   COST      1.50      INV_BAL_7_3 1.0
    CG_7_1_3   CDU_CAP_1_3 1.0
    CG_7_1_3   PROD_YIELD_NAPH_3 -0.2400
    CG_7_1_3   PROD_YIELD_KERO_3 -0.1700
    CG_7_1_3   PROD_YIELD_GASOIL_3 -0.3300
    CG_7_1_3   PROD_YIELD_VGO_3 -0.1600
    CG_7_1_3   PROD_YIELD_RESID_3 -0.1000
    CG_7_1_4   COST      1.50      INV_BAL_7_4 1.0
    CG_7_1_4   CDU_CAP_1_4 1.0
    CG_7_1_4   PROD_YIELD_NAPH_4 -0.2400
    CG_7_1_4   PROD_YIELD_KERO_4 -0.1700
    CG_7_1_4   PROD_YIELD_GASOIL_4 -0.3300
    CG_7_1_4   PROD_YIELD_VGO_4 -0.1600
    CG_7_1_4   PROD_YIELD_RESID_4 -0.1000
    CG_7_1_5   COST      1.50      INV_BAL_7_5 1.0
    CG_7_1_5   CDU_CAP_1_5 1.0
    CG_7_1_5   PROD_YIELD_NAPH_5 -0.2400
    CG_7_1_5   PROD_YIELD_KERO_5 -0.1700
    CG_7_1_5   PROD_YIELD_GASOIL_5 -0.3300
    CG_7_1_5   PROD_YIELD_VGO_5 -0.1600
    CG_7_1_5   PROD_YIELD_RESID_5 -0.1000
    CG_7_1_6   COST      1.50      INV_BAL_7_6 1.0
    CG_7_1_6   CDU_CAP_1_6 1.0
    CG_7_1_6   PROD_YIELD_NAPH_6 -0.2400
    CG_7_1_6   PROD_YIELD_KERO_6 -0.1700
    CG_7_1_6   PROD_YIELD_GASOIL_6 -0.3300
    CG_7_1_6   PROD_YIELD_VGO_6 -0.1600
    CG_7_1_6   PROD_YIELD_RESID_6 -0.1000
    CG_7_2_0   COST      1.50      INV_BAL_7_0 1.0
    CG_7_2_0   CDU_CAP_2_0 1.0
    CG_7_2_0   PROD_YIELD_NAPH_0 -0.2400
    CG_7_2_0   PROD_YIELD_KERO_0 -0.1700
    CG_7_2_0   PROD_YIELD_GASOIL_0 -0.3300
    CG_7_2_0   PROD_YIELD_VGO_0 -0.1600
    CG_7_2_0   PROD_YIELD_RESID_0 -0.1000
    CG_7_2_1   COST      1.50      INV_BAL_7_1 1.0
    CG_7_2_1   CDU_CAP_2_1 1.0
    CG_7_2_1   PROD_YIELD_NAPH_1 -0.2400
    CG_7_2_1   PROD_YIELD_KERO_1 -0.1700
    CG_7_2_1   PROD_YIELD_GASOIL_1 -0.3300
    CG_7_2_1   PROD_YIELD_VGO_1 -0.1600
    CG_7_2_1   PROD_YIELD_RESID_1 -0.1000
    CG_7_2_2   COST      1.50      INV_BAL_7_2 1.0
    CG_7_2_2   CDU_CAP_2_2 1.0
    CG_7_2_2   PROD_YIELD_NAPH_2 -0.2400
    CG_7_2_2   PROD_YIELD_KERO_2 -0.1700
    CG_7_2_2   PROD_YIELD_GASOIL_2 -0.3300
    CG_7_2_2   PROD_YIELD_VGO_2 -0.1600
    CG_7_2_2   PROD_YIELD_RESID_2 -0.1000
    CG_7_2_3   COST      1.50      INV_BAL_7_3 1.0
    CG_7_2_3   CDU_CAP_2_3 1.0
    CG_7_2_3   PROD_YIELD_NAPH_3 -0.2400
    CG_7_2_3   PROD_YIELD_KERO_3 -0.1700
    CG_7_2_3   PROD_YIELD_GASOIL_3 -0.3300
    CG_7_2_3   PROD_YIELD_VGO_3 -0.1600
    CG_7_2_3   PROD_YIELD_RESID_3 -0.1000
    CG_7_2_4   COST      1.50      INV_BAL_7_4 1.0
    CG_7_2_4   CDU_CAP_2_4 1.0
    CG_7_2_4   PROD_YIELD_NAPH_4 -0.2400
    CG_7_2_4   PROD_YIELD_KERO_4 -0.1700
    CG_7_2_4   PROD_YIELD_GASOIL_4 -0.3300
    CG_7_2_4   PROD_YIELD_VGO_4 -0.1600
    CG_7_2_4   PROD_YIELD_RESID_4 -0.1000
    CG_7_2_5   COST      1.50      INV_BAL_7_5 1.0
    CG_7_2_5   CDU_CAP_2_5 1.0
    CG_7_2_5   PROD_YIELD_NAPH_5 -0.2400
    CG_7_2_5   PROD_YIELD_KERO_5 -0.1700
    CG_7_2_5   PROD_YIELD_GASOIL_5 -0.3300
    CG_7_2_5   PROD_YIELD_VGO_5 -0.1600
    CG_7_2_5   PROD_YIELD_RESID_5 -0.1000
    CG_7_2_6   COST      1.50      INV_BAL_7_6 1.0
    CG_7_2_6   CDU_CAP_2_6 1.0
    CG_7_2_6   PROD_YIELD_NAPH_6 -0.2400
    CG_7_2_6   PROD_YIELD_KERO_6 -0.1700
    CG_7_2_6   PROD_YIELD_GASOIL_6 -0.3300
    CG_7_2_6   PROD_YIELD_VGO_6 -0.1600
    CG_7_2_6   PROD_YIELD_RESID_6 -0.1000
    CG_8_0_0   COST      1.50      INV_BAL_8_0 1.0
    CG_8_0_0   CDU_CAP_0_0 1.0
    CG_8_0_0   PROD_YIELD_NAPH_0 -0.2500
    CG_8_0_0   PROD_YIELD_KERO_0 -0.1600
    CG_8_0_0   PROD_YIELD_GASOIL_0 -0.3500
    CG_8_0_0   PROD_YIELD_VGO_0 -0.1500
    CG_8_0_0   PROD_YIELD_RESID_0 -0.0900
    CG_8_0_1   COST      1.50      INV_BAL_8_1 1.0
    CG_8_0_1   CDU_CAP_0_1 1.0
    CG_8_0_1   PROD_YIELD_NAPH_1 -0.2500
    CG_8_0_1   PROD_YIELD_KERO_1 -0.1600
    CG_8_0_1   PROD_YIELD_GASOIL_1 -0.3500
    CG_8_0_1   PROD_YIELD_VGO_1 -0.1500
    CG_8_0_1   PROD_YIELD_RESID_1 -0.0900
    CG_8_0_2   COST      1.50      INV_BAL_8_2 1.0
    CG_8_0_2   CDU_CAP_0_2 1.0
    CG_8_0_2   PROD_YIELD_NAPH_2 -0.2500
    CG_8_0_2   PROD_YIELD_KERO_2 -0.1600
    CG_8_0_2   PROD_YIELD_GASOIL_2 -0.3500
    CG_8_0_2   PROD_YIELD_VGO_2 -0.1500
    CG_8_0_2   PROD_YIELD_RESID_2 -0.0900
    CG_8_0_3   COST      1.50      INV_BAL_8_3 1.0
    CG_8_0_3   CDU_CAP_0_3 1.0
    CG_8_0_3   PROD_YIELD_NAPH_3 -0.2500
    CG_8_0_3   PROD_YIELD_KERO_3 -0.1600
    CG_8_0_3   PROD_YIELD_GASOIL_3 -0.3500
    CG_8_0_3   PROD_YIELD_VGO_3 -0.1500
    CG_8_0_3   PROD_YIELD_RESID_3 -0.0900
    CG_8_0_4   COST      1.50      INV_BAL_8_4 1.0
    CG_8_0_4   CDU_CAP_0_4 1.0
    CG_8_0_4   PROD_YIELD_NAPH_4 -0.2500
    CG_8_0_4   PROD_YIELD_KERO_4 -0.1600
    CG_8_0_4   PROD_YIELD_GASOIL_4 -0.3500
    CG_8_0_4   PROD_YIELD_VGO_4 -0.1500
    CG_8_0_4   PROD_YIELD_RESID_4 -0.0900
    CG_8_0_5   COST      1.50      INV_BAL_8_5 1.0
    CG_8_0_5   CDU_CAP_0_5 1.0
    CG_8_0_5   PROD_YIELD_NAPH_5 -0.2500
    CG_8_0_5   PROD_YIELD_KERO_5 -0.1600
    CG_8_0_5   PROD_YIELD_GASOIL_5 -0.3500
    CG_8_0_5   PROD_YIELD_VGO_5 -0.1500
    CG_8_0_5   PROD_YIELD_RESID_5 -0.0900
    CG_8_0_6   COST      1.50      INV_BAL_8_6 1.0
    CG_8_0_6   CDU_CAP_0_6 1.0
    CG_8_0_6   PROD_YIELD_NAPH_6 -0.2500
    CG_8_0_6   PROD_YIELD_KERO_6 -0.1600
    CG_8_0_6   PROD_YIELD_GASOIL_6 -0.3500
    CG_8_0_6   PROD_YIELD_VGO_6 -0.1500
    CG_8_0_6   PROD_YIELD_RESID_6 -0.0900
    CG_8_1_0   COST      1.50      INV_BAL_8_0 1.0
    CG_8_1_0   CDU_CAP_1_0 1.0
    CG_8_1_0   PROD_YIELD_NAPH_0 -0.2500
    CG_8_1_0   PROD_YIELD_KERO_0 -0.1600
    CG_8_1_0   PROD_YIELD_GASOIL_0 -0.3500
    CG_8_1_0   PROD_YIELD_VGO_0 -0.1500
    CG_8_1_0   PROD_YIELD_RESID_0 -0.0900
    CG_8_1_1   COST      1.50      INV_BAL_8_1 1.0
    CG_8_1_1   CDU_CAP_1_1 1.0
    CG_8_1_1   PROD_YIELD_NAPH_1 -0.2500
    CG_8_1_1   PROD_YIELD_KERO_1 -0.1600
    CG_8_1_1   PROD_YIELD_GASOIL_1 -0.3500
    CG_8_1_1   PROD_YIELD_VGO_1 -0.1500
    CG_8_1_1   PROD_YIELD_RESID_1 -0.0900
    CG_8_1_2   COST      1.50      INV_BAL_8_2 1.0
    CG_8_1_2   CDU_CAP_1_2 1.0
    CG_8_1_2   PROD_YIELD_NAPH_2 -0.2500
    CG_8_1_2   PROD_YIELD_KERO_2 -0.1600
    CG_8_1_2   PROD_YIELD_GASOIL_2 -0.3500
    CG_8_1_2   PROD_YIELD_VGO_2 -0.1500
    CG_8_1_2   PROD_YIELD_RESID_2 -0.0900
    CG_8_1_3   COST      1.50      INV_BAL_8_3 1.0
    CG_8_1_3   CDU_CAP_1_3 1.0
    CG_8_1_3   PROD_YIELD_NAPH_3 -0.2500
    CG_8_1_3   PROD_YIELD_KERO_3 -0.1600
    CG_8_1_3   PROD_YIELD_GASOIL_3 -0.3500
    CG_8_1_3   PROD_YIELD_VGO_3 -0.1500
    CG_8_1_3   PROD_YIELD_RESID_3 -0.0900
    CG_8_1_4   COST      1.50      INV_BAL_8_4 1.0
    CG_8_1_4   CDU_CAP_1_4 1.0
    CG_8_1_4   PROD_YIELD_NAPH_4 -0.2500
    CG_8_1_4   PROD_YIELD_KERO_4 -0.1600
    CG_8_1_4   PROD_YIELD_GASOIL_4 -0.3500
    CG_8_1_4   PROD_YIELD_VGO_4 -0.1500
    CG_8_1_4   PROD_YIELD_RESID_4 -0.0900
    CG_8_1_5   COST      1.50      INV_BAL_8_5 1.0
    CG_8_1_5   CDU_CAP_1_5 1.0
    CG_8_1_5   PROD_YIELD_NAPH_5 -0.2500
    CG_8_1_5   PROD_YIELD_KERO_5 -0.1600
    CG_8_1_5   PROD_YIELD_GASOIL_5 -0.3500
    CG_8_1_5   PROD_YIELD_VGO_5 -0.1500
    CG_8_1_5   PROD_YIELD_RESID_5 -0.0900
    CG_8_1_6   COST      1.50      INV_BAL_8_6 1.0
    CG_8_1_6   CDU_CAP_1_6 1.0
    CG_8_1_6   PROD_YIELD_NAPH_6 -0.2500
    CG_8_1_6   PROD_YIELD_KERO_6 -0.1600
    CG_8_1_6   PROD_YIELD_GASOIL_6 -0.3500
    CG_8_1_6   PROD_YIELD_VGO_6 -0.1500
    CG_8_1_6   PROD_YIELD_RESID_6 -0.0900
    CG_8_2_0   COST      1.50      INV_BAL_8_0 1.0
    CG_8_2_0   CDU_CAP_2_0 1.0
    CG_8_2_0   PROD_YIELD_NAPH_0 -0.2500
    CG_8_2_0   PROD_YIELD_KERO_0 -0.1600
    CG_8_2_0   PROD_YIELD_GASOIL_0 -0.3500
    CG_8_2_0   PROD_YIELD_VGO_0 -0.1500
    CG_8_2_0   PROD_YIELD_RESID_0 -0.0900
    CG_8_2_1   COST      1.50      INV_BAL_8_1 1.0
    CG_8_2_1   CDU_CAP_2_1 1.0
    CG_8_2_1   PROD_YIELD_NAPH_1 -0.2500
    CG_8_2_1   PROD_YIELD_KERO_1 -0.1600
    CG_8_2_1   PROD_YIELD_GASOIL_1 -0.3500
    CG_8_2_1   PROD_YIELD_VGO_1 -0.1500
    CG_8_2_1   PROD_YIELD_RESID_1 -0.0900
    CG_8_2_2   COST      1.50      INV_BAL_8_2 1.0
    CG_8_2_2   CDU_CAP_2_2 1.0
    CG_8_2_2   PROD_YIELD_NAPH_2 -0.2500
    CG_8_2_2   PROD_YIELD_KERO_2 -0.1600
    CG_8_2_2   PROD_YIELD_GASOIL_2 -0.3500
    CG_8_2_2   PROD_YIELD_VGO_2 -0.1500
    CG_8_2_2   PROD_YIELD_RESID_2 -0.0900
    CG_8_2_3   COST      1.50      INV_BAL_8_3 1.0
    CG_8_2_3   CDU_CAP_2_3 1.0
    CG_8_2_3   PROD_YIELD_NAPH_3 -0.2500
    CG_8_2_3   PROD_YIELD_KERO_3 -0.1600
    CG_8_2_3   PROD_YIELD_GASOIL_3 -0.3500
    CG_8_2_3   PROD_YIELD_VGO_3 -0.1500
    CG_8_2_3   PROD_YIELD_RESID_3 -0.0900
    CG_8_2_4   COST      1.50      INV_BAL_8_4 1.0
    CG_8_2_4   CDU_CAP_2_4 1.0
    CG_8_2_4   PROD_YIELD_NAPH_4 -0.2500
    CG_8_2_4   PROD_YIELD_KERO_4 -0.1600
    CG_8_2_4   PROD_YIELD_GASOIL_4 -0.3500
    CG_8_2_4   PROD_YIELD_VGO_4 -0.1500
    CG_8_2_4   PROD_YIELD_RESID_4 -0.0900
    CG_8_2_5   COST      1.50      INV_BAL_8_5 1.0
    CG_8_2_5   CDU_CAP_2_5 1.0
    CG_8_2_5   PROD_YIELD_NAPH_5 -0.2500
    CG_8_2_5   PROD_YIELD_KERO_5 -0.1600
    CG_8_2_5   PROD_YIELD_GASOIL_5 -0.3500
    CG_8_2_5   PROD_YIELD_VGO_5 -0.1500
    CG_8_2_5   PROD_YIELD_RESID_5 -0.0900
    CG_8_2_6   COST      1.50      INV_BAL_8_6 1.0
    CG_8_2_6   CDU_CAP_2_6 1.0
    CG_8_2_6   PROD_YIELD_NAPH_6 -0.2500
    CG_8_2_6   PROD_YIELD_KERO_6 -0.1600
    CG_8_2_6   PROD_YIELD_GASOIL_6 -0.3500
    CG_8_2_6   PROD_YIELD_VGO_6 -0.1500
    CG_8_2_6   PROD_YIELD_RESID_6 -0.0900
    CG_9_0_0   COST      1.50      INV_BAL_9_0 1.0
    CG_9_0_0   CDU_CAP_0_0 1.0
    CG_9_0_0   PROD_YIELD_NAPH_0 -0.1800
    CG_9_0_0   PROD_YIELD_KERO_0 -0.1400
    CG_9_0_0   PROD_YIELD_GASOIL_0 -0.3000
    CG_9_0_0   PROD_YIELD_VGO_0 -0.2200
    CG_9_0_0   PROD_YIELD_RESID_0 -0.1600
    CG_9_0_1   COST      1.50      INV_BAL_9_1 1.0
    CG_9_0_1   CDU_CAP_0_1 1.0
    CG_9_0_1   PROD_YIELD_NAPH_1 -0.1800
    CG_9_0_1   PROD_YIELD_KERO_1 -0.1400
    CG_9_0_1   PROD_YIELD_GASOIL_1 -0.3000
    CG_9_0_1   PROD_YIELD_VGO_1 -0.2200
    CG_9_0_1   PROD_YIELD_RESID_1 -0.1600
    CG_9_0_2   COST      1.50      INV_BAL_9_2 1.0
    CG_9_0_2   CDU_CAP_0_2 1.0
    CG_9_0_2   PROD_YIELD_NAPH_2 -0.1800
    CG_9_0_2   PROD_YIELD_KERO_2 -0.1400
    CG_9_0_2   PROD_YIELD_GASOIL_2 -0.3000
    CG_9_0_2   PROD_YIELD_VGO_2 -0.2200
    CG_9_0_2   PROD_YIELD_RESID_2 -0.1600
    CG_9_0_3   COST      1.50      INV_BAL_9_3 1.0
    CG_9_0_3   CDU_CAP_0_3 1.0
    CG_9_0_3   PROD_YIELD_NAPH_3 -0.1800
    CG_9_0_3   PROD_YIELD_KERO_3 -0.1400
    CG_9_0_3   PROD_YIELD_GASOIL_3 -0.3000
    CG_9_0_3   PROD_YIELD_VGO_3 -0.2200
    CG_9_0_3   PROD_YIELD_RESID_3 -0.1600
    CG_9_0_4   COST      1.50      INV_BAL_9_4 1.0
    CG_9_0_4   CDU_CAP_0_4 1.0
    CG_9_0_4   PROD_YIELD_NAPH_4 -0.1800
    CG_9_0_4   PROD_YIELD_KERO_4 -0.1400
    CG_9_0_4   PROD_YIELD_GASOIL_4 -0.3000
    CG_9_0_4   PROD_YIELD_VGO_4 -0.2200
    CG_9_0_4   PROD_YIELD_RESID_4 -0.1600
    CG_9_0_5   COST      1.50      INV_BAL_9_5 1.0
    CG_9_0_5   CDU_CAP_0_5 1.0
    CG_9_0_5   PROD_YIELD_NAPH_5 -0.1800
    CG_9_0_5   PROD_YIELD_KERO_5 -0.1400
    CG_9_0_5   PROD_YIELD_GASOIL_5 -0.3000
    CG_9_0_5   PROD_YIELD_VGO_5 -0.2200
    CG_9_0_5   PROD_YIELD_RESID_5 -0.1600
    CG_9_0_6   COST      1.50      INV_BAL_9_6 1.0
    CG_9_0_6   CDU_CAP_0_6 1.0
    CG_9_0_6   PROD_YIELD_NAPH_6 -0.1800
    CG_9_0_6   PROD_YIELD_KERO_6 -0.1400
    CG_9_0_6   PROD_YIELD_GASOIL_6 -0.3000
    CG_9_0_6   PROD_YIELD_VGO_6 -0.2200
    CG_9_0_6   PROD_YIELD_RESID_6 -0.1600
    CG_9_1_0   COST      1.50      INV_BAL_9_0 1.0
    CG_9_1_0   CDU_CAP_1_0 1.0
    CG_9_1_0   PROD_YIELD_NAPH_0 -0.1800
    CG_9_1_0   PROD_YIELD_KERO_0 -0.1400
    CG_9_1_0   PROD_YIELD_GASOIL_0 -0.3000
    CG_9_1_0   PROD_YIELD_VGO_0 -0.2200
    CG_9_1_0   PROD_YIELD_RESID_0 -0.1600
    CG_9_1_1   COST      1.50      INV_BAL_9_1 1.0
    CG_9_1_1   CDU_CAP_1_1 1.0
    CG_9_1_1   PROD_YIELD_NAPH_1 -0.1800
    CG_9_1_1   PROD_YIELD_KERO_1 -0.1400
    CG_9_1_1   PROD_YIELD_GASOIL_1 -0.3000
    CG_9_1_1   PROD_YIELD_VGO_1 -0.2200
    CG_9_1_1   PROD_YIELD_RESID_1 -0.1600
    CG_9_1_2   COST      1.50      INV_BAL_9_2 1.0
    CG_9_1_2   CDU_CAP_1_2 1.0
    CG_9_1_2   PROD_YIELD_NAPH_2 -0.1800
    CG_9_1_2   PROD_YIELD_KERO_2 -0.1400
    CG_9_1_2   PROD_YIELD_GASOIL_2 -0.3000
    CG_9_1_2   PROD_YIELD_VGO_2 -0.2200
    CG_9_1_2   PROD_YIELD_RESID_2 -0.1600
    CG_9_1_3   COST      1.50      INV_BAL_9_3 1.0
    CG_9_1_3   CDU_CAP_1_3 1.0
    CG_9_1_3   PROD_YIELD_NAPH_3 -0.1800
    CG_9_1_3   PROD_YIELD_KERO_3 -0.1400
    CG_9_1_3   PROD_YIELD_GASOIL_3 -0.3000
    CG_9_1_3   PROD_YIELD_VGO_3 -0.2200
    CG_9_1_3   PROD_YIELD_RESID_3 -0.1600
    CG_9_1_4   COST      1.50      INV_BAL_9_4 1.0
    CG_9_1_4   CDU_CAP_1_4 1.0
    CG_9_1_4   PROD_YIELD_NAPH_4 -0.1800
    CG_9_1_4   PROD_YIELD_KERO_4 -0.1400
    CG_9_1_4   PROD_YIELD_GASOIL_4 -0.3000
    CG_9_1_4   PROD_YIELD_VGO_4 -0.2200
    CG_9_1_4   PROD_YIELD_RESID_4 -0.1600
    CG_9_1_5   COST      1.50      INV_BAL_9_5 1.0
    CG_9_1_5   CDU_CAP_1_5 1.0
    CG_9_1_5   PROD_YIELD_NAPH_5 -0.1800
    CG_9_1_5   PROD_YIELD_KERO_5 -0.1400
    CG_9_1_5   PROD_YIELD_GASOIL_5 -0.3000
    CG_9_1_5   PROD_YIELD_VGO_5 -0.2200
    CG_9_1_5   PROD_YIELD_RESID_5 -0.1600
    CG_9_1_6   COST      1.50      INV_BAL_9_6 1.0
    CG_9_1_6   CDU_CAP_1_6 1.0
    CG_9_1_6   PROD_YIELD_NAPH_6 -0.1800
    CG_9_1_6   PROD_YIELD_KERO_6 -0.1400
    CG_9_1_6   PROD_YIELD_GASOIL_6 -0.3000
    CG_9_1_6   PROD_YIELD_VGO_6 -0.2200
    CG_9_1_6   PROD_YIELD_RESID_6 -0.1600
    CG_9_2_0   COST      1.50      INV_BAL_9_0 1.0
    CG_9_2_0   CDU_CAP_2_0 1.0
    CG_9_2_0   PROD_YIELD_NAPH_0 -0.1800
    CG_9_2_0   PROD_YIELD_KERO_0 -0.1400
    CG_9_2_0   PROD_YIELD_GASOIL_0 -0.3000
    CG_9_2_0   PROD_YIELD_VGO_0 -0.2200
    CG_9_2_0   PROD_YIELD_RESID_0 -0.1600
    CG_9_2_1   COST      1.50      INV_BAL_9_1 1.0
    CG_9_2_1   CDU_CAP_2_1 1.0
    CG_9_2_1   PROD_YIELD_NAPH_1 -0.1800
    CG_9_2_1   PROD_YIELD_KERO_1 -0.1400
    CG_9_2_1   PROD_YIELD_GASOIL_1 -0.3000
    CG_9_2_1   PROD_YIELD_VGO_1 -0.2200
    CG_9_2_1   PROD_YIELD_RESID_1 -0.1600
    CG_9_2_2   COST      1.50      INV_BAL_9_2 1.0
    CG_9_2_2   CDU_CAP_2_2 1.0
    CG_9_2_2   PROD_YIELD_NAPH_2 -0.1800
    CG_9_2_2   PROD_YIELD_KERO_2 -0.1400
    CG_9_2_2   PROD_YIELD_GASOIL_2 -0.3000
    CG_9_2_2   PROD_YIELD_VGO_2 -0.2200
    CG_9_2_2   PROD_YIELD_RESID_2 -0.1600
    CG_9_2_3   COST      1.50      INV_BAL_9_3 1.0
    CG_9_2_3   CDU_CAP_2_3 1.0
    CG_9_2_3   PROD_YIELD_NAPH_3 -0.1800
    CG_9_2_3   PROD_YIELD_KERO_3 -0.1400
    CG_9_2_3   PROD_YIELD_GASOIL_3 -0.3000
    CG_9_2_3   PROD_YIELD_VGO_3 -0.2200
    CG_9_2_3   PROD_YIELD_RESID_3 -0.1600
    CG_9_2_4   COST      1.50      INV_BAL_9_4 1.0
    CG_9_2_4   CDU_CAP_2_4 1.0
    CG_9_2_4   PROD_YIELD_NAPH_4 -0.1800
    CG_9_2_4   PROD_YIELD_KERO_4 -0.1400
    CG_9_2_4   PROD_YIELD_GASOIL_4 -0.3000
    CG_9_2_4   PROD_YIELD_VGO_4 -0.2200
    CG_9_2_4   PROD_YIELD_RESID_4 -0.1600
    CG_9_2_5   COST      1.50      INV_BAL_9_5 1.0
    CG_9_2_5   CDU_CAP_2_5 1.0
    CG_9_2_5   PROD_YIELD_NAPH_5 -0.1800
    CG_9_2_5   PROD_YIELD_KERO_5 -0.1400
    CG_9_2_5   PROD_YIELD_GASOIL_5 -0.3000
    CG_9_2_5   PROD_YIELD_VGO_5 -0.2200
    CG_9_2_5   PROD_YIELD_RESID_5 -0.1600
    CG_9_2_6   COST      1.50      INV_BAL_9_6 1.0
    CG_9_2_6   CDU_CAP_2_6 1.0
    CG_9_2_6   PROD_YIELD_NAPH_6 -0.1800
    CG_9_2_6   PROD_YIELD_KERO_6 -0.1400
    CG_9_2_6   PROD_YIELD_GASOIL_6 -0.3000
    CG_9_2_6   PROD_YIELD_VGO_6 -0.2200
    CG_9_2_6   PROD_YIELD_RESID_6 -0.1600
    CG_10_0_0  COST      1.50      INV_BAL_10_0 1.0
    CG_10_0_0  CDU_CAP_0_0 1.0
    CG_10_0_0  PROD_YIELD_NAPH_0 -0.2000
    CG_10_0_0  PROD_YIELD_KERO_0 -0.1500
    CG_10_0_0  PROD_YIELD_GASOIL_0 -0.3000
    CG_10_0_0  PROD_YIELD_VGO_0 -0.2000
    CG_10_0_0  PROD_YIELD_RESID_0 -0.1500
    CG_10_0_1  COST      1.50      INV_BAL_10_1 1.0
    CG_10_0_1  CDU_CAP_0_1 1.0
    CG_10_0_1  PROD_YIELD_NAPH_1 -0.2000
    CG_10_0_1  PROD_YIELD_KERO_1 -0.1500
    CG_10_0_1  PROD_YIELD_GASOIL_1 -0.3000
    CG_10_0_1  PROD_YIELD_VGO_1 -0.2000
    CG_10_0_1  PROD_YIELD_RESID_1 -0.1500
    CG_10_0_2  COST      1.50      INV_BAL_10_2 1.0
    CG_10_0_2  CDU_CAP_0_2 1.0
    CG_10_0_2  PROD_YIELD_NAPH_2 -0.2000
    CG_10_0_2  PROD_YIELD_KERO_2 -0.1500
    CG_10_0_2  PROD_YIELD_GASOIL_2 -0.3000
    CG_10_0_2  PROD_YIELD_VGO_2 -0.2000
    CG_10_0_2  PROD_YIELD_RESID_2 -0.1500
    CG_10_0_3  COST      1.50      INV_BAL_10_3 1.0
    CG_10_0_3  CDU_CAP_0_3 1.0
    CG_10_0_3  PROD_YIELD_NAPH_3 -0.2000
    CG_10_0_3  PROD_YIELD_KERO_3 -0.1500
    CG_10_0_3  PROD_YIELD_GASOIL_3 -0.3000
    CG_10_0_3  PROD_YIELD_VGO_3 -0.2000
    CG_10_0_3  PROD_YIELD_RESID_3 -0.1500
    CG_10_0_4  COST      1.50      INV_BAL_10_4 1.0
    CG_10_0_4  CDU_CAP_0_4 1.0
    CG_10_0_4  PROD_YIELD_NAPH_4 -0.2000
    CG_10_0_4  PROD_YIELD_KERO_4 -0.1500
    CG_10_0_4  PROD_YIELD_GASOIL_4 -0.3000
    CG_10_0_4  PROD_YIELD_VGO_4 -0.2000
    CG_10_0_4  PROD_YIELD_RESID_4 -0.1500
    CG_10_0_5  COST      1.50      INV_BAL_10_5 1.0
    CG_10_0_5  CDU_CAP_0_5 1.0
    CG_10_0_5  PROD_YIELD_NAPH_5 -0.2000
    CG_10_0_5  PROD_YIELD_KERO_5 -0.1500
    CG_10_0_5  PROD_YIELD_GASOIL_5 -0.3000
    CG_10_0_5  PROD_YIELD_VGO_5 -0.2000
    CG_10_0_5  PROD_YIELD_RESID_5 -0.1500
    CG_10_0_6  COST      1.50      INV_BAL_10_6 1.0
    CG_10_0_6  CDU_CAP_0_6 1.0
    CG_10_0_6  PROD_YIELD_NAPH_6 -0.2000
    CG_10_0_6  PROD_YIELD_KERO_6 -0.1500
    CG_10_0_6  PROD_YIELD_GASOIL_6 -0.3000
    CG_10_0_6  PROD_YIELD_VGO_6 -0.2000
    CG_10_0_6  PROD_YIELD_RESID_6 -0.1500
    CG_10_1_0  COST      1.50      INV_BAL_10_0 1.0
    CG_10_1_0  CDU_CAP_1_0 1.0
    CG_10_1_0  PROD_YIELD_NAPH_0 -0.2000
    CG_10_1_0  PROD_YIELD_KERO_0 -0.1500
    CG_10_1_0  PROD_YIELD_GASOIL_0 -0.3000
    CG_10_1_0  PROD_YIELD_VGO_0 -0.2000
    CG_10_1_0  PROD_YIELD_RESID_0 -0.1500
    CG_10_1_1  COST      1.50      INV_BAL_10_1 1.0
    CG_10_1_1  CDU_CAP_1_1 1.0
    CG_10_1_1  PROD_YIELD_NAPH_1 -0.2000
    CG_10_1_1  PROD_YIELD_KERO_1 -0.1500
    CG_10_1_1  PROD_YIELD_GASOIL_1 -0.3000
    CG_10_1_1  PROD_YIELD_VGO_1 -0.2000
    CG_10_1_1  PROD_YIELD_RESID_1 -0.1500
    CG_10_1_2  COST      1.50      INV_BAL_10_2 1.0
    CG_10_1_2  CDU_CAP_1_2 1.0
    CG_10_1_2  PROD_YIELD_NAPH_2 -0.2000
    CG_10_1_2  PROD_YIELD_KERO_2 -0.1500
    CG_10_1_2  PROD_YIELD_GASOIL_2 -0.3000
    CG_10_1_2  PROD_YIELD_VGO_2 -0.2000
    CG_10_1_2  PROD_YIELD_RESID_2 -0.1500
    CG_10_1_3  COST      1.50      INV_BAL_10_3 1.0
    CG_10_1_3  CDU_CAP_1_3 1.0
    CG_10_1_3  PROD_YIELD_NAPH_3 -0.2000
    CG_10_1_3  PROD_YIELD_KERO_3 -0.1500
    CG_10_1_3  PROD_YIELD_GASOIL_3 -0.3000
    CG_10_1_3  PROD_YIELD_VGO_3 -0.2000
    CG_10_1_3  PROD_YIELD_RESID_3 -0.1500
    CG_10_1_4  COST      1.50      INV_BAL_10_4 1.0
    CG_10_1_4  CDU_CAP_1_4 1.0
    CG_10_1_4  PROD_YIELD_NAPH_4 -0.2000
    CG_10_1_4  PROD_YIELD_KERO_4 -0.1500
    CG_10_1_4  PROD_YIELD_GASOIL_4 -0.3000
    CG_10_1_4  PROD_YIELD_VGO_4 -0.2000
    CG_10_1_4  PROD_YIELD_RESID_4 -0.1500
    CG_10_1_5  COST      1.50      INV_BAL_10_5 1.0
    CG_10_1_5  CDU_CAP_1_5 1.0
    CG_10_1_5  PROD_YIELD_NAPH_5 -0.2000
    CG_10_1_5  PROD_YIELD_KERO_5 -0.1500
    CG_10_1_5  PROD_YIELD_GASOIL_5 -0.3000
    CG_10_1_5  PROD_YIELD_VGO_5 -0.2000
    CG_10_1_5  PROD_YIELD_RESID_5 -0.1500
    CG_10_1_6  COST      1.50      INV_BAL_10_6 1.0
    CG_10_1_6  CDU_CAP_1_6 1.0
    CG_10_1_6  PROD_YIELD_NAPH_6 -0.2000
    CG_10_1_6  PROD_YIELD_KERO_6 -0.1500
    CG_10_1_6  PROD_YIELD_GASOIL_6 -0.3000
    CG_10_1_6  PROD_YIELD_VGO_6 -0.2000
    CG_10_1_6  PROD_YIELD_RESID_6 -0.1500
    CG_10_2_0  COST      1.50      INV_BAL_10_0 1.0
    CG_10_2_0  CDU_CAP_2_0 1.0
    CG_10_2_0  PROD_YIELD_NAPH_0 -0.2000
    CG_10_2_0  PROD_YIELD_KERO_0 -0.1500
    CG_10_2_0  PROD_YIELD_GASOIL_0 -0.3000
    CG_10_2_0  PROD_YIELD_VGO_0 -0.2000
    CG_10_2_0  PROD_YIELD_RESID_0 -0.1500
    CG_10_2_1  COST      1.50      INV_BAL_10_1 1.0
    CG_10_2_1  CDU_CAP_2_1 1.0
    CG_10_2_1  PROD_YIELD_NAPH_1 -0.2000
    CG_10_2_1  PROD_YIELD_KERO_1 -0.1500
    CG_10_2_1  PROD_YIELD_GASOIL_1 -0.3000
    CG_10_2_1  PROD_YIELD_VGO_1 -0.2000
    CG_10_2_1  PROD_YIELD_RESID_1 -0.1500
    CG_10_2_2  COST      1.50      INV_BAL_10_2 1.0
    CG_10_2_2  CDU_CAP_2_2 1.0
    CG_10_2_2  PROD_YIELD_NAPH_2 -0.2000
    CG_10_2_2  PROD_YIELD_KERO_2 -0.1500
    CG_10_2_2  PROD_YIELD_GASOIL_2 -0.3000
    CG_10_2_2  PROD_YIELD_VGO_2 -0.2000
    CG_10_2_2  PROD_YIELD_RESID_2 -0.1500
    CG_10_2_3  COST      1.50      INV_BAL_10_3 1.0
    CG_10_2_3  CDU_CAP_2_3 1.0
    CG_10_2_3  PROD_YIELD_NAPH_3 -0.2000
    CG_10_2_3  PROD_YIELD_KERO_3 -0.1500
    CG_10_2_3  PROD_YIELD_GASOIL_3 -0.3000
    CG_10_2_3  PROD_YIELD_VGO_3 -0.2000
    CG_10_2_3  PROD_YIELD_RESID_3 -0.1500
    CG_10_2_4  COST      1.50      INV_BAL_10_4 1.0
    CG_10_2_4  CDU_CAP_2_4 1.0
    CG_10_2_4  PROD_YIELD_NAPH_4 -0.2000
    CG_10_2_4  PROD_YIELD_KERO_4 -0.1500
    CG_10_2_4  PROD_YIELD_GASOIL_4 -0.3000
    CG_10_2_4  PROD_YIELD_VGO_4 -0.2000
    CG_10_2_4  PROD_YIELD_RESID_4 -0.1500
    CG_10_2_5  COST      1.50      INV_BAL_10_5 1.0
    CG_10_2_5  CDU_CAP_2_5 1.0
    CG_10_2_5  PROD_YIELD_NAPH_5 -0.2000
    CG_10_2_5  PROD_YIELD_KERO_5 -0.1500
    CG_10_2_5  PROD_YIELD_GASOIL_5 -0.3000
    CG_10_2_5  PROD_YIELD_VGO_5 -0.2000
    CG_10_2_5  PROD_YIELD_RESID_5 -0.1500
    CG_10_2_6  COST      1.50      INV_BAL_10_6 1.0
    CG_10_2_6  CDU_CAP_2_6 1.0
    CG_10_2_6  PROD_YIELD_NAPH_6 -0.2000
    CG_10_2_6  PROD_YIELD_KERO_6 -0.1500
    CG_10_2_6  PROD_YIELD_GASOIL_6 -0.3000
    CG_10_2_6  PROD_YIELD_VGO_6 -0.2000
    CG_10_2_6  PROD_YIELD_RESID_6 -0.1500
    CG_11_0_0  COST      1.50      INV_BAL_11_0 1.0
    CG_11_0_0  CDU_CAP_0_0 1.0
    CG_11_0_0  PROD_YIELD_NAPH_0 -0.1200
    CG_11_0_0  PROD_YIELD_KERO_0 -0.1000
    CG_11_0_0  PROD_YIELD_GASOIL_0 -0.2500
    CG_11_0_0  PROD_YIELD_VGO_0 -0.2500
    CG_11_0_0  PROD_YIELD_RESID_0 -0.2800
    CG_11_0_1  COST      1.50      INV_BAL_11_1 1.0
    CG_11_0_1  CDU_CAP_0_1 1.0
    CG_11_0_1  PROD_YIELD_NAPH_1 -0.1200
    CG_11_0_1  PROD_YIELD_KERO_1 -0.1000
    CG_11_0_1  PROD_YIELD_GASOIL_1 -0.2500
    CG_11_0_1  PROD_YIELD_VGO_1 -0.2500
    CG_11_0_1  PROD_YIELD_RESID_1 -0.2800
    CG_11_0_2  COST      1.50      INV_BAL_11_2 1.0
    CG_11_0_2  CDU_CAP_0_2 1.0
    CG_11_0_2  PROD_YIELD_NAPH_2 -0.1200
    CG_11_0_2  PROD_YIELD_KERO_2 -0.1000
    CG_11_0_2  PROD_YIELD_GASOIL_2 -0.2500
    CG_11_0_2  PROD_YIELD_VGO_2 -0.2500
    CG_11_0_2  PROD_YIELD_RESID_2 -0.2800
    CG_11_0_3  COST      1.50      INV_BAL_11_3 1.0
    CG_11_0_3  CDU_CAP_0_3 1.0
    CG_11_0_3  PROD_YIELD_NAPH_3 -0.1200
    CG_11_0_3  PROD_YIELD_KERO_3 -0.1000
    CG_11_0_3  PROD_YIELD_GASOIL_3 -0.2500
    CG_11_0_3  PROD_YIELD_VGO_3 -0.2500
    CG_11_0_3  PROD_YIELD_RESID_3 -0.2800
    CG_11_0_4  COST      1.50      INV_BAL_11_4 1.0
    CG_11_0_4  CDU_CAP_0_4 1.0
    CG_11_0_4  PROD_YIELD_NAPH_4 -0.1200
    CG_11_0_4  PROD_YIELD_KERO_4 -0.1000
    CG_11_0_4  PROD_YIELD_GASOIL_4 -0.2500
    CG_11_0_4  PROD_YIELD_VGO_4 -0.2500
    CG_11_0_4  PROD_YIELD_RESID_4 -0.2800
    CG_11_0_5  COST      1.50      INV_BAL_11_5 1.0
    CG_11_0_5  CDU_CAP_0_5 1.0
    CG_11_0_5  PROD_YIELD_NAPH_5 -0.1200
    CG_11_0_5  PROD_YIELD_KERO_5 -0.1000
    CG_11_0_5  PROD_YIELD_GASOIL_5 -0.2500
    CG_11_0_5  PROD_YIELD_VGO_5 -0.2500
    CG_11_0_5  PROD_YIELD_RESID_5 -0.2800
    CG_11_0_6  COST      1.50      INV_BAL_11_6 1.0
    CG_11_0_6  CDU_CAP_0_6 1.0
    CG_11_0_6  PROD_YIELD_NAPH_6 -0.1200
    CG_11_0_6  PROD_YIELD_KERO_6 -0.1000
    CG_11_0_6  PROD_YIELD_GASOIL_6 -0.2500
    CG_11_0_6  PROD_YIELD_VGO_6 -0.2500
    CG_11_0_6  PROD_YIELD_RESID_6 -0.2800
    CG_11_1_0  COST      1.50      INV_BAL_11_0 1.0
    CG_11_1_0  CDU_CAP_1_0 1.0
    CG_11_1_0  PROD_YIELD_NAPH_0 -0.1200
    CG_11_1_0  PROD_YIELD_KERO_0 -0.1000
    CG_11_1_0  PROD_YIELD_GASOIL_0 -0.2500
    CG_11_1_0  PROD_YIELD_VGO_0 -0.2500
    CG_11_1_0  PROD_YIELD_RESID_0 -0.2800
    CG_11_1_1  COST      1.50      INV_BAL_11_1 1.0
    CG_11_1_1  CDU_CAP_1_1 1.0
    CG_11_1_1  PROD_YIELD_NAPH_1 -0.1200
    CG_11_1_1  PROD_YIELD_KERO_1 -0.1000
    CG_11_1_1  PROD_YIELD_GASOIL_1 -0.2500
    CG_11_1_1  PROD_YIELD_VGO_1 -0.2500
    CG_11_1_1  PROD_YIELD_RESID_1 -0.2800
    CG_11_1_2  COST      1.50      INV_BAL_11_2 1.0
    CG_11_1_2  CDU_CAP_1_2 1.0
    CG_11_1_2  PROD_YIELD_NAPH_2 -0.1200
    CG_11_1_2  PROD_YIELD_KERO_2 -0.1000
    CG_11_1_2  PROD_YIELD_GASOIL_2 -0.2500
    CG_11_1_2  PROD_YIELD_VGO_2 -0.2500
    CG_11_1_2  PROD_YIELD_RESID_2 -0.2800
    CG_11_1_3  COST      1.50      INV_BAL_11_3 1.0
    CG_11_1_3  CDU_CAP_1_3 1.0
    CG_11_1_3  PROD_YIELD_NAPH_3 -0.1200
    CG_11_1_3  PROD_YIELD_KERO_3 -0.1000
    CG_11_1_3  PROD_YIELD_GASOIL_3 -0.2500
    CG_11_1_3  PROD_YIELD_VGO_3 -0.2500
    CG_11_1_3  PROD_YIELD_RESID_3 -0.2800
    CG_11_1_4  COST      1.50      INV_BAL_11_4 1.0
    CG_11_1_4  CDU_CAP_1_4 1.0
    CG_11_1_4  PROD_YIELD_NAPH_4 -0.1200
    CG_11_1_4  PROD_YIELD_KERO_4 -0.1000
    CG_11_1_4  PROD_YIELD_GASOIL_4 -0.2500
    CG_11_1_4  PROD_YIELD_VGO_4 -0.2500
    CG_11_1_4  PROD_YIELD_RESID_4 -0.2800
    CG_11_1_5  COST      1.50      INV_BAL_11_5 1.0
    CG_11_1_5  CDU_CAP_1_5 1.0
    CG_11_1_5  PROD_YIELD_NAPH_5 -0.1200
    CG_11_1_5  PROD_YIELD_KERO_5 -0.1000
    CG_11_1_5  PROD_YIELD_GASOIL_5 -0.2500
    CG_11_1_5  PROD_YIELD_VGO_5 -0.2500
    CG_11_1_5  PROD_YIELD_RESID_5 -0.2800
    CG_11_1_6  COST      1.50      INV_BAL_11_6 1.0
    CG_11_1_6  CDU_CAP_1_6 1.0
    CG_11_1_6  PROD_YIELD_NAPH_6 -0.1200
    CG_11_1_6  PROD_YIELD_KERO_6 -0.1000
    CG_11_1_6  PROD_YIELD_GASOIL_6 -0.2500
    CG_11_1_6  PROD_YIELD_VGO_6 -0.2500
    CG_11_1_6  PROD_YIELD_RESID_6 -0.2800
    CG_11_2_0  COST      1.50      INV_BAL_11_0 1.0
    CG_11_2_0  CDU_CAP_2_0 1.0
    CG_11_2_0  PROD_YIELD_NAPH_0 -0.1200
    CG_11_2_0  PROD_YIELD_KERO_0 -0.1000
    CG_11_2_0  PROD_YIELD_GASOIL_0 -0.2500
    CG_11_2_0  PROD_YIELD_VGO_0 -0.2500
    CG_11_2_0  PROD_YIELD_RESID_0 -0.2800
    CG_11_2_1  COST      1.50      INV_BAL_11_1 1.0
    CG_11_2_1  CDU_CAP_2_1 1.0
    CG_11_2_1  PROD_YIELD_NAPH_1 -0.1200
    CG_11_2_1  PROD_YIELD_KERO_1 -0.1000
    CG_11_2_1  PROD_YIELD_GASOIL_1 -0.2500
    CG_11_2_1  PROD_YIELD_VGO_1 -0.2500
    CG_11_2_1  PROD_YIELD_RESID_1 -0.2800
    CG_11_2_2  COST      1.50      INV_BAL_11_2 1.0
    CG_11_2_2  CDU_CAP_2_2 1.0
    CG_11_2_2  PROD_YIELD_NAPH_2 -0.1200
    CG_11_2_2  PROD_YIELD_KERO_2 -0.1000
    CG_11_2_2  PROD_YIELD_GASOIL_2 -0.2500
    CG_11_2_2  PROD_YIELD_VGO_2 -0.2500
    CG_11_2_2  PROD_YIELD_RESID_2 -0.2800
    CG_11_2_3  COST      1.50      INV_BAL_11_3 1.0
    CG_11_2_3  CDU_CAP_2_3 1.0
    CG_11_2_3  PROD_YIELD_NAPH_3 -0.1200
    CG_11_2_3  PROD_YIELD_KERO_3 -0.1000
    CG_11_2_3  PROD_YIELD_GASOIL_3 -0.2500
    CG_11_2_3  PROD_YIELD_VGO_3 -0.2500
    CG_11_2_3  PROD_YIELD_RESID_3 -0.2800
    CG_11_2_4  COST      1.50      INV_BAL_11_4 1.0
    CG_11_2_4  CDU_CAP_2_4 1.0
    CG_11_2_4  PROD_YIELD_NAPH_4 -0.1200
    CG_11_2_4  PROD_YIELD_KERO_4 -0.1000
    CG_11_2_4  PROD_YIELD_GASOIL_4 -0.2500
    CG_11_2_4  PROD_YIELD_VGO_4 -0.2500
    CG_11_2_4  PROD_YIELD_RESID_4 -0.2800
    CG_11_2_5  COST      1.50      INV_BAL_11_5 1.0
    CG_11_2_5  CDU_CAP_2_5 1.0
    CG_11_2_5  PROD_YIELD_NAPH_5 -0.1200
    CG_11_2_5  PROD_YIELD_KERO_5 -0.1000
    CG_11_2_5  PROD_YIELD_GASOIL_5 -0.2500
    CG_11_2_5  PROD_YIELD_VGO_5 -0.2500
    CG_11_2_5  PROD_YIELD_RESID_5 -0.2800
    CG_11_2_6  COST      1.50      INV_BAL_11_6 1.0
    CG_11_2_6  CDU_CAP_2_6 1.0
    CG_11_2_6  PROD_YIELD_NAPH_6 -0.1200
    CG_11_2_6  PROD_YIELD_KERO_6 -0.1000
    CG_11_2_6  PROD_YIELD_GASOIL_6 -0.2500
    CG_11_2_6  PROD_YIELD_VGO_6 -0.2500
    CG_11_2_6  PROD_YIELD_RESID_6 -0.2800
    PR_NAPH_0  COST      -78.00     PROD_YIELD_NAPH_0 1.0
    PR_NAPH_0  PROD_DEM_NAPH_0 1.0
    PR_NAPH_1  COST      -78.00     PROD_YIELD_NAPH_1 1.0
    PR_NAPH_1  PROD_DEM_NAPH_1 1.0
    PR_NAPH_2  COST      -78.00     PROD_YIELD_NAPH_2 1.0
    PR_NAPH_2  PROD_DEM_NAPH_2 1.0
    PR_NAPH_3  COST      -78.00     PROD_YIELD_NAPH_3 1.0
    PR_NAPH_3  PROD_DEM_NAPH_3 1.0
    PR_NAPH_4  COST      -78.00     PROD_YIELD_NAPH_4 1.0
    PR_NAPH_4  PROD_DEM_NAPH_4 1.0
    PR_NAPH_5  COST      -78.00     PROD_YIELD_NAPH_5 1.0
    PR_NAPH_5  PROD_DEM_NAPH_5 1.0
    PR_NAPH_6  COST      -78.00     PROD_YIELD_NAPH_6 1.0
    PR_NAPH_6  PROD_DEM_NAPH_6 1.0
    PR_KERO_0  COST      -92.00     PROD_YIELD_KERO_0 1.0
    PR_KERO_0  PROD_DEM_KERO_0 1.0
    PR_KERO_1  COST      -92.00     PROD_YIELD_KERO_1 1.0
    PR_KERO_1  PROD_DEM_KERO_1 1.0
    PR_KERO_2  COST      -92.00     PROD_YIELD_KERO_2 1.0
    PR_KERO_2  PROD_DEM_KERO_2 1.0
    PR_KERO_3  COST      -92.00     PROD_YIELD_KERO_3 1.0
    PR_KERO_3  PROD_DEM_KERO_3 1.0
    PR_KERO_4  COST      -92.00     PROD_YIELD_KERO_4 1.0
    PR_KERO_4  PROD_DEM_KERO_4 1.0
    PR_KERO_5  COST      -92.00     PROD_YIELD_KERO_5 1.0
    PR_KERO_5  PROD_DEM_KERO_5 1.0
    PR_KERO_6  COST      -92.00     PROD_YIELD_KERO_6 1.0
    PR_KERO_6  PROD_DEM_KERO_6 1.0
    PR_GASOIL_0 COST      -88.00     PROD_YIELD_GASOIL_0 1.0
    PR_GASOIL_0 PROD_DEM_GASOIL_0 1.0
    PR_GASOIL_1 COST      -88.00     PROD_YIELD_GASOIL_1 1.0
    PR_GASOIL_1 PROD_DEM_GASOIL_1 1.0
    PR_GASOIL_2 COST      -88.00     PROD_YIELD_GASOIL_2 1.0
    PR_GASOIL_2 PROD_DEM_GASOIL_2 1.0
    PR_GASOIL_3 COST      -88.00     PROD_YIELD_GASOIL_3 1.0
    PR_GASOIL_3 PROD_DEM_GASOIL_3 1.0
    PR_GASOIL_4 COST      -88.00     PROD_YIELD_GASOIL_4 1.0
    PR_GASOIL_4 PROD_DEM_GASOIL_4 1.0
    PR_GASOIL_5 COST      -88.00     PROD_YIELD_GASOIL_5 1.0
    PR_GASOIL_5 PROD_DEM_GASOIL_5 1.0
    PR_GASOIL_6 COST      -88.00     PROD_YIELD_GASOIL_6 1.0
    PR_GASOIL_6 PROD_DEM_GASOIL_6 1.0
    PR_VGO_0   COST      -70.00     PROD_YIELD_VGO_0 1.0
    PR_VGO_0   PROD_DEM_VGO_0 1.0
    PR_VGO_1   COST      -70.00     PROD_YIELD_VGO_1 1.0
    PR_VGO_1   PROD_DEM_VGO_1 1.0
    PR_VGO_2   COST      -70.00     PROD_YIELD_VGO_2 1.0
    PR_VGO_2   PROD_DEM_VGO_2 1.0
    PR_VGO_3   COST      -70.00     PROD_YIELD_VGO_3 1.0
    PR_VGO_3   PROD_DEM_VGO_3 1.0
    PR_VGO_4   COST      -70.00     PROD_YIELD_VGO_4 1.0
    PR_VGO_4   PROD_DEM_VGO_4 1.0
    PR_VGO_5   COST      -70.00     PROD_YIELD_VGO_5 1.0
    PR_VGO_5   PROD_DEM_VGO_5 1.0
    PR_VGO_6   COST      -70.00     PROD_YIELD_VGO_6 1.0
    PR_VGO_6   PROD_DEM_VGO_6 1.0
    PR_RESID_0 COST      -48.00     PROD_YIELD_RESID_0 1.0
    PR_RESID_0 PROD_DEM_RESID_0 1.0
    PR_RESID_1 COST      -48.00     PROD_YIELD_RESID_1 1.0
    PR_RESID_1 PROD_DEM_RESID_1 1.0
    PR_RESID_2 COST      -48.00     PROD_YIELD_RESID_2 1.0
    PR_RESID_2 PROD_DEM_RESID_2 1.0
    PR_RESID_3 COST      -48.00     PROD_YIELD_RESID_3 1.0
    PR_RESID_3 PROD_DEM_RESID_3 1.0
    PR_RESID_4 COST      -48.00     PROD_YIELD_RESID_4 1.0
    PR_RESID_4 PROD_DEM_RESID_4 1.0
    PR_RESID_5 COST      -48.00     PROD_YIELD_RESID_5 1.0
    PR_RESID_5 PROD_DEM_RESID_5 1.0
    PR_RESID_6 COST      -48.00     PROD_YIELD_RESID_6 1.0
    PR_RESID_6 PROD_DEM_RESID_6 1.0
RHS
    RHS1      INV_BAL_0_0          80.0000
    RHS1      INV_BAL_1_0          80.0000
    RHS1      INV_BAL_2_0          80.0000
    RHS1      INV_BAL_3_0          80.0000
    RHS1      INV_BAL_4_0          80.0000
    RHS1      INV_BAL_5_0          80.0000
    RHS1      INV_BAL_6_0          80.0000
    RHS1      INV_BAL_7_0          80.0000
    RHS1      INV_BAL_8_0          80.0000
    RHS1      INV_BAL_9_0          80.0000
    RHS1      INV_BAL_10_0         80.0000
    RHS1      INV_BAL_11_0         80.0000
    RHS1      CDU_CAP_0_0          120.0000
    RHS1      CDU_CAP_0_1          120.0000
    RHS1      CDU_CAP_0_2          120.0000
    RHS1      CDU_CAP_0_3          120.0000
    RHS1      CDU_CAP_0_4          120.0000
    RHS1      CDU_CAP_0_5          120.0000
    RHS1      CDU_CAP_0_6          120.0000
    RHS1      CDU_CAP_1_0          150.0000
    RHS1      CDU_CAP_1_1          150.0000
    RHS1      CDU_CAP_1_2          150.0000
    RHS1      CDU_CAP_1_3          150.0000
    RHS1      CDU_CAP_1_4          150.0000
    RHS1      CDU_CAP_1_5          150.0000
    RHS1      CDU_CAP_1_6          150.0000
    RHS1      CDU_CAP_2_0          180.0000
    RHS1      CDU_CAP_2_1          180.0000
    RHS1      CDU_CAP_2_2          180.0000
    RHS1      CDU_CAP_2_3          180.0000
    RHS1      CDU_CAP_2_4          180.0000
    RHS1      CDU_CAP_2_5          180.0000
    RHS1      CDU_CAP_2_6          180.0000
    RHS1      BERTH_EXCL_0_0       1.0000
    RHS1      BERTH_EXCL_0_1       1.0000
    RHS1      BERTH_EXCL_0_2       1.0000
    RHS1      BERTH_EXCL_0_3       1.0000
    RHS1      BERTH_EXCL_0_4       1.0000
    RHS1      BERTH_EXCL_0_5       1.0000
    RHS1      BERTH_EXCL_0_6       1.0000
    RHS1      BERTH_EXCL_1_0       1.0000
    RHS1      BERTH_EXCL_1_1       1.0000
    RHS1      BERTH_EXCL_1_2       1.0000
    RHS1      BERTH_EXCL_1_3       1.0000
    RHS1      BERTH_EXCL_1_4       1.0000
    RHS1      BERTH_EXCL_1_5       1.0000
    RHS1      BERTH_EXCL_1_6       1.0000
    RHS1      BERTH_EXCL_2_0       1.0000
    RHS1      BERTH_EXCL_2_1       1.0000
    RHS1      BERTH_EXCL_2_2       1.0000
    RHS1      BERTH_EXCL_2_3       1.0000
    RHS1      BERTH_EXCL_2_4       1.0000
    RHS1      BERTH_EXCL_2_5       1.0000
    RHS1      BERTH_EXCL_2_6       1.0000
    RHS1      BERTH_EXCL_3_0       1.0000
    RHS1      BERTH_EXCL_3_1       1.0000
    RHS1      BERTH_EXCL_3_2       1.0000
    RHS1      BERTH_EXCL_3_3       1.0000
    RHS1      BERTH_EXCL_3_4       1.0000
    RHS1      BERTH_EXCL_3_5       1.0000
    RHS1      BERTH_EXCL_3_6       1.0000
    RHS1      PROD_DEM_NAPH_0      10.0000
    RHS1      PROD_DEM_NAPH_1      10.0993
    RHS1      PROD_DEM_NAPH_2      10.1947
    RHS1      PROD_DEM_NAPH_3      10.2823
    RHS1      PROD_DEM_NAPH_4      10.3587
    RHS1      PROD_DEM_NAPH_5      10.4207
    RHS1      PROD_DEM_NAPH_6      10.4660
    RHS1      PROD_DEM_KERO_0      12.0000
    RHS1      PROD_DEM_KERO_1      12.1192
    RHS1      PROD_DEM_KERO_2      12.2337
    RHS1      PROD_DEM_KERO_3      12.3388
    RHS1      PROD_DEM_KERO_4      12.4304
    RHS1      PROD_DEM_KERO_5      12.5049
    RHS1      PROD_DEM_KERO_6      12.5592
    RHS1      PROD_DEM_GASOIL_0    30.0000
    RHS1      PROD_DEM_GASOIL_1    30.2980
    RHS1      PROD_DEM_GASOIL_2    30.5841
    RHS1      PROD_DEM_GASOIL_3    30.8470
    RHS1      PROD_DEM_GASOIL_4    31.0760
    RHS1      PROD_DEM_GASOIL_5    31.2622
    RHS1      PROD_DEM_GASOIL_6    31.3981
    RHS1      PROD_DEM_VGO_0       15.0000
    RHS1      PROD_DEM_VGO_1       15.1490
    RHS1      PROD_DEM_VGO_2       15.2921
    RHS1      PROD_DEM_VGO_3       15.4235
    RHS1      PROD_DEM_VGO_4       15.5380
    RHS1      PROD_DEM_VGO_5       15.6311
    RHS1      PROD_DEM_VGO_6       15.6990
    RHS1      PROD_DEM_RESID_0     8.0000
    RHS1      PROD_DEM_RESID_1     8.0795
    RHS1      PROD_DEM_RESID_2     8.1558
    RHS1      PROD_DEM_RESID_3     8.2259
    RHS1      PROD_DEM_RESID_4     8.2869
    RHS1      PROD_DEM_RESID_5     8.3366
    RHS1      PROD_DEM_RESID_6     8.3728
    RHS1      TANKER_WIN_ARABLGT_1 1.0000
    RHS1      TANKER_WIN_ARABLGT_2 1.0000
    RHS1      TANKER_WIN_ARABLGT_4 1.0000
    RHS1      TANKER_WIN_ARABLGT_5 1.0000
    RHS1      TANKER_WIN_ARABHVY_0 1.0000
    RHS1      TANKER_WIN_ARABHVY_2 1.0000
    RHS1      TANKER_WIN_ARABHVY_3 1.0000
    RHS1      TANKER_WIN_ARABHVY_5 1.0000
    RHS1      TANKER_WIN_ARABHVY_6 1.0000
    RHS1      TANKER_WIN_BASRAH_0  1.0000
    RHS1      TANKER_WIN_BASRAH_1  1.0000
    RHS1      TANKER_WIN_BASRAH_3  1.0000
    RHS1      TANKER_WIN_BASRAH_4  1.0000
    RHS1      TANKER_WIN_BASRAH_6  1.0000
    RHS1      TANKER_WIN_MAYA_1    1.0000
    RHS1      TANKER_WIN_MAYA_2    1.0000
    RHS1      TANKER_WIN_MAYA_4    1.0000
    RHS1      TANKER_WIN_MAYA_5    1.0000
    RHS1      TANKER_WIN_BONNY_1   1.0000
    RHS1      TANKER_WIN_BONNY_2   1.0000
    RHS1      TANKER_WIN_BONNY_4   1.0000
    RHS1      TANKER_WIN_BONNY_5   1.0000
    RHS1      TANKER_WIN_MUMBAI_0  1.0000
    RHS1      TANKER_WIN_MUMBAI_2  1.0000
    RHS1      TANKER_WIN_MUMBAI_3  1.0000
    RHS1      TANKER_WIN_MUMBAI_5  1.0000
    RHS1      TANKER_WIN_MUMBAI_6  1.0000
    RHS1      TANKER_WIN_KUWAIT_0  1.0000
    RHS1      TANKER_WIN_KUWAIT_1  1.0000
    RHS1      TANKER_WIN_KUWAIT_3  1.0000
    RHS1      TANKER_WIN_KUWAIT_4  1.0000
    RHS1      TANKER_WIN_KUWAIT_6  1.0000
    RHS1      TANKER_WIN_MURBAN_1  1.0000
    RHS1      TANKER_WIN_MURBAN_2  1.0000
    RHS1      TANKER_WIN_MURBAN_4  1.0000
    RHS1      TANKER_WIN_MURBAN_5  1.0000
    RHS1      TANKER_WIN_SOKOL_1   1.0000
    RHS1      TANKER_WIN_SOKOL_2   1.0000
    RHS1      TANKER_WIN_SOKOL_4   1.0000
    RHS1      TANKER_WIN_SOKOL_5   1.0000
    RHS1      TANKER_WIN_SVERDRP_0 1.0000
    RHS1      TANKER_WIN_SVERDRP_2 1.0000
    RHS1      TANKER_WIN_SVERDRP_3 1.0000
    RHS1      TANKER_WIN_SVERDRP_5 1.0000
    RHS1      TANKER_WIN_SVERDRP_6 1.0000
BOUNDS
 BV BND       YB_ARAB_0_0
 BV BND       YB_ARAB_0_1
 BV BND       YB_ARAB_0_2
 BV BND       YB_ARAB_0_3
 BV BND       YB_ARAB_0_4
 BV BND       YB_ARAB_0_5
 BV BND       YB_ARAB_0_6
 BV BND       YB_ARAB_1_0
 BV BND       YB_ARAB_1_1
 BV BND       YB_ARAB_1_2
 BV BND       YB_ARAB_1_3
 BV BND       YB_ARAB_1_4
 BV BND       YB_ARAB_1_5
 BV BND       YB_ARAB_1_6
 BV BND       YB_BASR_2_0
 BV BND       YB_BASR_2_1
 BV BND       YB_BASR_2_2
 BV BND       YB_BASR_2_3
 BV BND       YB_BASR_2_4
 BV BND       YB_BASR_2_5
 BV BND       YB_BASR_2_6
 BV BND       YB_MAYA_3_0
 BV BND       YB_MAYA_3_1
 BV BND       YB_MAYA_3_2
 BV BND       YB_MAYA_3_3
 BV BND       YB_MAYA_3_4
 BV BND       YB_MAYA_3_5
 BV BND       YB_MAYA_3_6
 BV BND       YB_BONN_0_0
 BV BND       YB_BONN_0_1
 BV BND       YB_BONN_0_2
 BV BND       YB_BONN_0_3
 BV BND       YB_BONN_0_4
 BV BND       YB_BONN_0_5
 BV BND       YB_BONN_0_6
 BV BND       YB_MUMB_1_0
 BV BND       YB_MUMB_1_1
 BV BND       YB_MUMB_1_2
 BV BND       YB_MUMB_1_3
 BV BND       YB_MUMB_1_4
 BV BND       YB_MUMB_1_5
 BV BND       YB_MUMB_1_6
 BV BND       YB_KUWA_2_0
 BV BND       YB_KUWA_2_1
 BV BND       YB_KUWA_2_2
 BV BND       YB_KUWA_2_3
 BV BND       YB_KUWA_2_4
 BV BND       YB_KUWA_2_5
 BV BND       YB_KUWA_2_6
 BV BND       YB_MURB_3_0
 BV BND       YB_MURB_3_1
 BV BND       YB_MURB_3_2
 BV BND       YB_MURB_3_3
 BV BND       YB_MURB_3_4
 BV BND       YB_MURB_3_5
 BV BND       YB_MURB_3_6
 BV BND       YB_SOKO_0_0
 BV BND       YB_SOKO_0_1
 BV BND       YB_SOKO_0_2
 BV BND       YB_SOKO_0_3
 BV BND       YB_SOKO_0_4
 BV BND       YB_SOKO_0_5
 BV BND       YB_SOKO_0_6
 BV BND       YB_SVER_1_0
 BV BND       YB_SVER_1_1
 BV BND       YB_SVER_1_2
 BV BND       YB_SVER_1_3
 BV BND       YB_SVER_1_4
 BV BND       YB_SVER_1_5
 BV BND       YB_SVER_1_6
 UP BND       QU_ARAB_0_0 80.0
 UP BND       QU_ARAB_0_1 80.0
 UP BND       QU_ARAB_0_2 80.0
 UP BND       QU_ARAB_0_3 80.0
 UP BND       QU_ARAB_0_4 80.0
 UP BND       QU_ARAB_0_5 80.0
 UP BND       QU_ARAB_0_6 80.0
 UP BND       QU_ARAB_1_0 80.0
 UP BND       QU_ARAB_1_1 80.0
 UP BND       QU_ARAB_1_2 80.0
 UP BND       QU_ARAB_1_3 80.0
 UP BND       QU_ARAB_1_4 80.0
 UP BND       QU_ARAB_1_5 80.0
 UP BND       QU_ARAB_1_6 80.0
 UP BND       QU_BASR_2_0 80.0
 UP BND       QU_BASR_2_1 80.0
 UP BND       QU_BASR_2_2 80.0
 UP BND       QU_BASR_2_3 80.0
 UP BND       QU_BASR_2_4 80.0
 UP BND       QU_BASR_2_5 80.0
 UP BND       QU_BASR_2_6 80.0
 UP BND       QU_MAYA_3_0 80.0
 UP BND       QU_MAYA_3_1 80.0
 UP BND       QU_MAYA_3_2 80.0
 UP BND       QU_MAYA_3_3 80.0
 UP BND       QU_MAYA_3_4 80.0
 UP BND       QU_MAYA_3_5 80.0
 UP BND       QU_MAYA_3_6 80.0
 UP BND       QU_BONN_0_0 80.0
 UP BND       QU_BONN_0_1 80.0
 UP BND       QU_BONN_0_2 80.0
 UP BND       QU_BONN_0_3 80.0
 UP BND       QU_BONN_0_4 80.0
 UP BND       QU_BONN_0_5 80.0
 UP BND       QU_BONN_0_6 80.0
 UP BND       QU_MUMB_1_0 80.0
 UP BND       QU_MUMB_1_1 80.0
 UP BND       QU_MUMB_1_2 80.0
 UP BND       QU_MUMB_1_3 80.0
 UP BND       QU_MUMB_1_4 80.0
 UP BND       QU_MUMB_1_5 80.0
 UP BND       QU_MUMB_1_6 80.0
 UP BND       QU_KUWA_2_0 80.0
 UP BND       QU_KUWA_2_1 80.0
 UP BND       QU_KUWA_2_2 80.0
 UP BND       QU_KUWA_2_3 80.0
 UP BND       QU_KUWA_2_4 80.0
 UP BND       QU_KUWA_2_5 80.0
 UP BND       QU_KUWA_2_6 80.0
 UP BND       QU_MURB_3_0 80.0
 UP BND       QU_MURB_3_1 80.0
 UP BND       QU_MURB_3_2 80.0
 UP BND       QU_MURB_3_3 80.0
 UP BND       QU_MURB_3_4 80.0
 UP BND       QU_MURB_3_5 80.0
 UP BND       QU_MURB_3_6 80.0
 UP BND       QU_SOKO_0_0 80.0
 UP BND       QU_SOKO_0_1 80.0
 UP BND       QU_SOKO_0_2 80.0
 UP BND       QU_SOKO_0_3 80.0
 UP BND       QU_SOKO_0_4 80.0
 UP BND       QU_SOKO_0_5 80.0
 UP BND       QU_SOKO_0_6 80.0
 UP BND       QU_SVER_1_0 80.0
 UP BND       QU_SVER_1_1 80.0
 UP BND       QU_SVER_1_2 80.0
 UP BND       QU_SVER_1_3 80.0
 UP BND       QU_SVER_1_4 80.0
 UP BND       QU_SVER_1_5 80.0
 UP BND       QU_SVER_1_6 80.0
 LO BND       INV_0_0    10.00
 UP BND       INV_0_0    250.00
 LO BND       INV_0_1    10.00
 UP BND       INV_0_1    250.00
 LO BND       INV_0_2    10.00
 UP BND       INV_0_2    250.00
 LO BND       INV_0_3    10.00
 UP BND       INV_0_3    250.00
 LO BND       INV_0_4    10.00
 UP BND       INV_0_4    250.00
 LO BND       INV_0_5    10.00
 UP BND       INV_0_5    250.00
 LO BND       INV_0_6    10.00
 UP BND       INV_0_6    250.00
 LO BND       INV_1_0    10.00
 UP BND       INV_1_0    250.00
 LO BND       INV_1_1    10.00
 UP BND       INV_1_1    250.00
 LO BND       INV_1_2    10.00
 UP BND       INV_1_2    250.00
 LO BND       INV_1_3    10.00
 UP BND       INV_1_3    250.00
 LO BND       INV_1_4    10.00
 UP BND       INV_1_4    250.00
 LO BND       INV_1_5    10.00
 UP BND       INV_1_5    250.00
 LO BND       INV_1_6    10.00
 UP BND       INV_1_6    250.00
 LO BND       INV_2_0    10.00
 UP BND       INV_2_0    250.00
 LO BND       INV_2_1    10.00
 UP BND       INV_2_1    250.00
 LO BND       INV_2_2    10.00
 UP BND       INV_2_2    250.00
 LO BND       INV_2_3    10.00
 UP BND       INV_2_3    250.00
 LO BND       INV_2_4    10.00
 UP BND       INV_2_4    250.00
 LO BND       INV_2_5    10.00
 UP BND       INV_2_5    250.00
 LO BND       INV_2_6    10.00
 UP BND       INV_2_6    250.00
 LO BND       INV_3_0    10.00
 UP BND       INV_3_0    250.00
 LO BND       INV_3_1    10.00
 UP BND       INV_3_1    250.00
 LO BND       INV_3_2    10.00
 UP BND       INV_3_2    250.00
 LO BND       INV_3_3    10.00
 UP BND       INV_3_3    250.00
 LO BND       INV_3_4    10.00
 UP BND       INV_3_4    250.00
 LO BND       INV_3_5    10.00
 UP BND       INV_3_5    250.00
 LO BND       INV_3_6    10.00
 UP BND       INV_3_6    250.00
 LO BND       INV_4_0    10.00
 UP BND       INV_4_0    250.00
 LO BND       INV_4_1    10.00
 UP BND       INV_4_1    250.00
 LO BND       INV_4_2    10.00
 UP BND       INV_4_2    250.00
 LO BND       INV_4_3    10.00
 UP BND       INV_4_3    250.00
 LO BND       INV_4_4    10.00
 UP BND       INV_4_4    250.00
 LO BND       INV_4_5    10.00
 UP BND       INV_4_5    250.00
 LO BND       INV_4_6    10.00
 UP BND       INV_4_6    250.00
 LO BND       INV_5_0    10.00
 UP BND       INV_5_0    250.00
 LO BND       INV_5_1    10.00
 UP BND       INV_5_1    250.00
 LO BND       INV_5_2    10.00
 UP BND       INV_5_2    250.00
 LO BND       INV_5_3    10.00
 UP BND       INV_5_3    250.00
 LO BND       INV_5_4    10.00
 UP BND       INV_5_4    250.00
 LO BND       INV_5_5    10.00
 UP BND       INV_5_5    250.00
 LO BND       INV_5_6    10.00
 UP BND       INV_5_6    250.00
 LO BND       INV_6_0    10.00
 UP BND       INV_6_0    250.00
 LO BND       INV_6_1    10.00
 UP BND       INV_6_1    250.00
 LO BND       INV_6_2    10.00
 UP BND       INV_6_2    250.00
 LO BND       INV_6_3    10.00
 UP BND       INV_6_3    250.00
 LO BND       INV_6_4    10.00
 UP BND       INV_6_4    250.00
 LO BND       INV_6_5    10.00
 UP BND       INV_6_5    250.00
 LO BND       INV_6_6    10.00
 UP BND       INV_6_6    250.00
 LO BND       INV_7_0    10.00
 UP BND       INV_7_0    250.00
 LO BND       INV_7_1    10.00
 UP BND       INV_7_1    250.00
 LO BND       INV_7_2    10.00
 UP BND       INV_7_2    250.00
 LO BND       INV_7_3    10.00
 UP BND       INV_7_3    250.00
 LO BND       INV_7_4    10.00
 UP BND       INV_7_4    250.00
 LO BND       INV_7_5    10.00
 UP BND       INV_7_5    250.00
 LO BND       INV_7_6    10.00
 UP BND       INV_7_6    250.00
 LO BND       INV_8_0    10.00
 UP BND       INV_8_0    250.00
 LO BND       INV_8_1    10.00
 UP BND       INV_8_1    250.00
 LO BND       INV_8_2    10.00
 UP BND       INV_8_2    250.00
 LO BND       INV_8_3    10.00
 UP BND       INV_8_3    250.00
 LO BND       INV_8_4    10.00
 UP BND       INV_8_4    250.00
 LO BND       INV_8_5    10.00
 UP BND       INV_8_5    250.00
 LO BND       INV_8_6    10.00
 UP BND       INV_8_6    250.00
 LO BND       INV_9_0    10.00
 UP BND       INV_9_0    250.00
 LO BND       INV_9_1    10.00
 UP BND       INV_9_1    250.00
 LO BND       INV_9_2    10.00
 UP BND       INV_9_2    250.00
 LO BND       INV_9_3    10.00
 UP BND       INV_9_3    250.00
 LO BND       INV_9_4    10.00
 UP BND       INV_9_4    250.00
 LO BND       INV_9_5    10.00
 UP BND       INV_9_5    250.00
 LO BND       INV_9_6    10.00
 UP BND       INV_9_6    250.00
 LO BND       INV_10_0   10.00
 UP BND       INV_10_0   250.00
 LO BND       INV_10_1   10.00
 UP BND       INV_10_1   250.00
 LO BND       INV_10_2   10.00
 UP BND       INV_10_2   250.00
 LO BND       INV_10_3   10.00
 UP BND       INV_10_3   250.00
 LO BND       INV_10_4   10.00
 UP BND       INV_10_4   250.00
 LO BND       INV_10_5   10.00
 UP BND       INV_10_5   250.00
 LO BND       INV_10_6   10.00
 UP BND       INV_10_6   250.00
 LO BND       INV_11_0   10.00
 UP BND       INV_11_0   250.00
 LO BND       INV_11_1   10.00
 UP BND       INV_11_1   250.00
 LO BND       INV_11_2   10.00
 UP BND       INV_11_2   250.00
 LO BND       INV_11_3   10.00
 UP BND       INV_11_3   250.00
 LO BND       INV_11_4   10.00
 UP BND       INV_11_4   250.00
 LO BND       INV_11_5   10.00
 UP BND       INV_11_5   250.00
 LO BND       INV_11_6   10.00
 UP BND       INV_11_6   250.00
 UP BND       CG_0_0_0   60.0
 UP BND       CG_0_0_1   60.0
 UP BND       CG_0_0_2   60.0
 UP BND       CG_0_0_3   60.0
 UP BND       CG_0_0_4   60.0
 UP BND       CG_0_0_5   60.0
 UP BND       CG_0_0_6   60.0
 UP BND       CG_0_1_0   60.0
 UP BND       CG_0_1_1   60.0
 UP BND       CG_0_1_2   60.0
 UP BND       CG_0_1_3   60.0
 UP BND       CG_0_1_4   60.0
 UP BND       CG_0_1_5   60.0
 UP BND       CG_0_1_6   60.0
 UP BND       CG_0_2_0   60.0
 UP BND       CG_0_2_1   60.0
 UP BND       CG_0_2_2   60.0
 UP BND       CG_0_2_3   60.0
 UP BND       CG_0_2_4   60.0
 UP BND       CG_0_2_5   60.0
 UP BND       CG_0_2_6   60.0
 UP BND       CG_1_0_0   60.0
 UP BND       CG_1_0_1   60.0
 UP BND       CG_1_0_2   60.0
 UP BND       CG_1_0_3   60.0
 UP BND       CG_1_0_4   60.0
 UP BND       CG_1_0_5   60.0
 UP BND       CG_1_0_6   60.0
 UP BND       CG_1_1_0   60.0
 UP BND       CG_1_1_1   60.0
 UP BND       CG_1_1_2   60.0
 UP BND       CG_1_1_3   60.0
 UP BND       CG_1_1_4   60.0
 UP BND       CG_1_1_5   60.0
 UP BND       CG_1_1_6   60.0
 UP BND       CG_1_2_0   60.0
 UP BND       CG_1_2_1   60.0
 UP BND       CG_1_2_2   60.0
 UP BND       CG_1_2_3   60.0
 UP BND       CG_1_2_4   60.0
 UP BND       CG_1_2_5   60.0
 UP BND       CG_1_2_6   60.0
 UP BND       CG_2_0_0   60.0
 UP BND       CG_2_0_1   60.0
 UP BND       CG_2_0_2   60.0
 UP BND       CG_2_0_3   60.0
 UP BND       CG_2_0_4   60.0
 UP BND       CG_2_0_5   60.0
 UP BND       CG_2_0_6   60.0
 UP BND       CG_2_1_0   60.0
 UP BND       CG_2_1_1   60.0
 UP BND       CG_2_1_2   60.0
 UP BND       CG_2_1_3   60.0
 UP BND       CG_2_1_4   60.0
 UP BND       CG_2_1_5   60.0
 UP BND       CG_2_1_6   60.0
 UP BND       CG_2_2_0   60.0
 UP BND       CG_2_2_1   60.0
 UP BND       CG_2_2_2   60.0
 UP BND       CG_2_2_3   60.0
 UP BND       CG_2_2_4   60.0
 UP BND       CG_2_2_5   60.0
 UP BND       CG_2_2_6   60.0
 UP BND       CG_3_0_0   60.0
 UP BND       CG_3_0_1   60.0
 UP BND       CG_3_0_2   60.0
 UP BND       CG_3_0_3   60.0
 UP BND       CG_3_0_4   60.0
 UP BND       CG_3_0_5   60.0
 UP BND       CG_3_0_6   60.0
 UP BND       CG_3_1_0   60.0
 UP BND       CG_3_1_1   60.0
 UP BND       CG_3_1_2   60.0
 UP BND       CG_3_1_3   60.0
 UP BND       CG_3_1_4   60.0
 UP BND       CG_3_1_5   60.0
 UP BND       CG_3_1_6   60.0
 UP BND       CG_3_2_0   60.0
 UP BND       CG_3_2_1   60.0
 UP BND       CG_3_2_2   60.0
 UP BND       CG_3_2_3   60.0
 UP BND       CG_3_2_4   60.0
 UP BND       CG_3_2_5   60.0
 UP BND       CG_3_2_6   60.0
 UP BND       CG_4_0_0   60.0
 UP BND       CG_4_0_1   60.0
 UP BND       CG_4_0_2   60.0
 UP BND       CG_4_0_3   60.0
 UP BND       CG_4_0_4   60.0
 UP BND       CG_4_0_5   60.0
 UP BND       CG_4_0_6   60.0
 UP BND       CG_4_1_0   60.0
 UP BND       CG_4_1_1   60.0
 UP BND       CG_4_1_2   60.0
 UP BND       CG_4_1_3   60.0
 UP BND       CG_4_1_4   60.0
 UP BND       CG_4_1_5   60.0
 UP BND       CG_4_1_6   60.0
 UP BND       CG_4_2_0   60.0
 UP BND       CG_4_2_1   60.0
 UP BND       CG_4_2_2   60.0
 UP BND       CG_4_2_3   60.0
 UP BND       CG_4_2_4   60.0
 UP BND       CG_4_2_5   60.0
 UP BND       CG_4_2_6   60.0
 UP BND       CG_5_0_0   60.0
 UP BND       CG_5_0_1   60.0
 UP BND       CG_5_0_2   60.0
 UP BND       CG_5_0_3   60.0
 UP BND       CG_5_0_4   60.0
 UP BND       CG_5_0_5   60.0
 UP BND       CG_5_0_6   60.0
 UP BND       CG_5_1_0   60.0
 UP BND       CG_5_1_1   60.0
 UP BND       CG_5_1_2   60.0
 UP BND       CG_5_1_3   60.0
 UP BND       CG_5_1_4   60.0
 UP BND       CG_5_1_5   60.0
 UP BND       CG_5_1_6   60.0
 UP BND       CG_5_2_0   60.0
 UP BND       CG_5_2_1   60.0
 UP BND       CG_5_2_2   60.0
 UP BND       CG_5_2_3   60.0
 UP BND       CG_5_2_4   60.0
 UP BND       CG_5_2_5   60.0
 UP BND       CG_5_2_6   60.0
 UP BND       CG_6_0_0   60.0
 UP BND       CG_6_0_1   60.0
 UP BND       CG_6_0_2   60.0
 UP BND       CG_6_0_3   60.0
 UP BND       CG_6_0_4   60.0
 UP BND       CG_6_0_5   60.0
 UP BND       CG_6_0_6   60.0
 UP BND       CG_6_1_0   60.0
 UP BND       CG_6_1_1   60.0
 UP BND       CG_6_1_2   60.0
 UP BND       CG_6_1_3   60.0
 UP BND       CG_6_1_4   60.0
 UP BND       CG_6_1_5   60.0
 UP BND       CG_6_1_6   60.0
 UP BND       CG_6_2_0   60.0
 UP BND       CG_6_2_1   60.0
 UP BND       CG_6_2_2   60.0
 UP BND       CG_6_2_3   60.0
 UP BND       CG_6_2_4   60.0
 UP BND       CG_6_2_5   60.0
 UP BND       CG_6_2_6   60.0
 UP BND       CG_7_0_0   60.0
 UP BND       CG_7_0_1   60.0
 UP BND       CG_7_0_2   60.0
 UP BND       CG_7_0_3   60.0
 UP BND       CG_7_0_4   60.0
 UP BND       CG_7_0_5   60.0
 UP BND       CG_7_0_6   60.0
 UP BND       CG_7_1_0   60.0
 UP BND       CG_7_1_1   60.0
 UP BND       CG_7_1_2   60.0
 UP BND       CG_7_1_3   60.0
 UP BND       CG_7_1_4   60.0
 UP BND       CG_7_1_5   60.0
 UP BND       CG_7_1_6   60.0
 UP BND       CG_7_2_0   60.0
 UP BND       CG_7_2_1   60.0
 UP BND       CG_7_2_2   60.0
 UP BND       CG_7_2_3   60.0
 UP BND       CG_7_2_4   60.0
 UP BND       CG_7_2_5   60.0
 UP BND       CG_7_2_6   60.0
 UP BND       CG_8_0_0   60.0
 UP BND       CG_8_0_1   60.0
 UP BND       CG_8_0_2   60.0
 UP BND       CG_8_0_3   60.0
 UP BND       CG_8_0_4   60.0
 UP BND       CG_8_0_5   60.0
 UP BND       CG_8_0_6   60.0
 UP BND       CG_8_1_0   60.0
 UP BND       CG_8_1_1   60.0
 UP BND       CG_8_1_2   60.0
 UP BND       CG_8_1_3   60.0
 UP BND       CG_8_1_4   60.0
 UP BND       CG_8_1_5   60.0
 UP BND       CG_8_1_6   60.0
 UP BND       CG_8_2_0   60.0
 UP BND       CG_8_2_1   60.0
 UP BND       CG_8_2_2   60.0
 UP BND       CG_8_2_3   60.0
 UP BND       CG_8_2_4   60.0
 UP BND       CG_8_2_5   60.0
 UP BND       CG_8_2_6   60.0
 UP BND       CG_9_0_0   60.0
 UP BND       CG_9_0_1   60.0
 UP BND       CG_9_0_2   60.0
 UP BND       CG_9_0_3   60.0
 UP BND       CG_9_0_4   60.0
 UP BND       CG_9_0_5   60.0
 UP BND       CG_9_0_6   60.0
 UP BND       CG_9_1_0   60.0
 UP BND       CG_9_1_1   60.0
 UP BND       CG_9_1_2   60.0
 UP BND       CG_9_1_3   60.0
 UP BND       CG_9_1_4   60.0
 UP BND       CG_9_1_5   60.0
 UP BND       CG_9_1_6   60.0
 UP BND       CG_9_2_0   60.0
 UP BND       CG_9_2_1   60.0
 UP BND       CG_9_2_2   60.0
 UP BND       CG_9_2_3   60.0
 UP BND       CG_9_2_4   60.0
 UP BND       CG_9_2_5   60.0
 UP BND       CG_9_2_6   60.0
 UP BND       CG_10_0_0  60.0
 UP BND       CG_10_0_1  60.0
 UP BND       CG_10_0_2  60.0
 UP BND       CG_10_0_3  60.0
 UP BND       CG_10_0_4  60.0
 UP BND       CG_10_0_5  60.0
 UP BND       CG_10_0_6  60.0
 UP BND       CG_10_1_0  60.0
 UP BND       CG_10_1_1  60.0
 UP BND       CG_10_1_2  60.0
 UP BND       CG_10_1_3  60.0
 UP BND       CG_10_1_4  60.0
 UP BND       CG_10_1_5  60.0
 UP BND       CG_10_1_6  60.0
 UP BND       CG_10_2_0  60.0
 UP BND       CG_10_2_1  60.0
 UP BND       CG_10_2_2  60.0
 UP BND       CG_10_2_3  60.0
 UP BND       CG_10_2_4  60.0
 UP BND       CG_10_2_5  60.0
 UP BND       CG_10_2_6  60.0
 UP BND       CG_11_0_0  60.0
 UP BND       CG_11_0_1  60.0
 UP BND       CG_11_0_2  60.0
 UP BND       CG_11_0_3  60.0
 UP BND       CG_11_0_4  60.0
 UP BND       CG_11_0_5  60.0
 UP BND       CG_11_0_6  60.0
 UP BND       CG_11_1_0  60.0
 UP BND       CG_11_1_1  60.0
 UP BND       CG_11_1_2  60.0
 UP BND       CG_11_1_3  60.0
 UP BND       CG_11_1_4  60.0
 UP BND       CG_11_1_5  60.0
 UP BND       CG_11_1_6  60.0
 UP BND       CG_11_2_0  60.0
 UP BND       CG_11_2_1  60.0
 UP BND       CG_11_2_2  60.0
 UP BND       CG_11_2_3  60.0
 UP BND       CG_11_2_4  60.0
 UP BND       CG_11_2_5  60.0
 UP BND       CG_11_2_6  60.0
 UP BND       PR_NAPH_0  200.0
 UP BND       PR_NAPH_1  200.0
 UP BND       PR_NAPH_2  200.0
 UP BND       PR_NAPH_3  200.0
 UP BND       PR_NAPH_4  200.0
 UP BND       PR_NAPH_5  200.0
 UP BND       PR_NAPH_6  200.0
 UP BND       PR_KERO_0  200.0
 UP BND       PR_KERO_1  200.0
 UP BND       PR_KERO_2  200.0
 UP BND       PR_KERO_3  200.0
 UP BND       PR_KERO_4  200.0
 UP BND       PR_KERO_5  200.0
 UP BND       PR_KERO_6  200.0
 UP BND       PR_GASOIL_0 200.0
 UP BND       PR_GASOIL_1 200.0
 UP BND       PR_GASOIL_2 200.0
 UP BND       PR_GASOIL_3 200.0
 UP BND       PR_GASOIL_4 200.0
 UP BND       PR_GASOIL_5 200.0
 UP BND       PR_GASOIL_6 200.0
 UP BND       PR_VGO_0   200.0
 UP BND       PR_VGO_1   200.0
 UP BND       PR_VGO_2   200.0
 UP BND       PR_VGO_3   200.0
 UP BND       PR_VGO_4   200.0
 UP BND       PR_VGO_5   200.0
 UP BND       PR_VGO_6   200.0
 UP BND       PR_RESID_0 200.0
 UP BND       PR_RESID_1 200.0
 UP BND       PR_RESID_2 200.0
 UP BND       PR_RESID_3 200.0
 UP BND       PR_RESID_4 200.0
 UP BND       PR_RESID_5 200.0
 UP BND       PR_RESID_6 200.0
ENDATA
